\ Model OrienteeringFuelConstrainedRobots
\ LP format - for model browsing. Use MPS format to capture full model detail.
Maximize
  z
Subject To
 c1[K0]: - 0.00435462552146052 x[T0,T1,K0]
   - 0.00172652829564836 x[T0,T2,K0] - 0.00262500601054654 x[T0,T3,K0]
   - 0.00302887924679368 x[T0,T4,K0] - 0.00436092895076471 x[T0,D0,K0]
   - 0.00646502801431113 x[T0,D1,K0] - 0.00562256060131255 x[T0,D2,K0]
   - 0.00199867721645174 x[T0,D3,K0] - 8.3438018577635699e-04 x[T0,D4,K0]
   - 0.00436092895076471 x[T0,S0,K0] - 0.00436092895076471 x[T0,E0,K0]
   - 0.00435462552146052 x[T1,T0,K0] - 0.00580012741915743 x[T1,T2,K0]
   - 0.00561135736331617 x[T1,T3,K0] - 0.00384373538865176 x[T1,T4,K0]
   - 0.00718770551882053 x[T1,D0,K0] - 0.0101325531259056 x[T1,D1,K0]
   - 0.00355445103821111 x[T1,D2,K0] - 0.00251668 x[T1,D3,K0]
   - 0.00353347605049149 x[T1,D4,K0] - 0.00718770551882053 x[T1,S0,K0]
   - 0.00718770551882053 x[T1,E0,K0] - 0.00172652829564836 x[T2,T0,K0]
   - 0.00580012741915743 x[T2,T1,K0] - 0.00369506968301791 x[T2,T3,K0]
   - 0.00325737284718745 x[T2,T4,K0] - 0.00515797479425516 x[T2,D0,K0]
   - 0.00642015720686641 x[T2,D1,K0] - 0.00734907268095279 x[T2,D2,K0]
   - 0.00328891646051866 x[T2,D3,K0] - 0.00248573892826641 x[T2,D4,K0]
   - 0.00515797479425516 x[T2,S0,K0] - 0.00515797479425516 x[T2,E0,K0]
   - 0.00262500601054654 x[T3,T0,K0] - 0.00561135736331617 x[T3,T1,K0]
   - 0.00369506968301791 x[T3,T2,K0] - 0.00559798951825534 x[T3,T4,K0]
   - 0.00178236505495391 x[T3,D0,K0] - 0.00452699057783865 x[T3,D1,K0]
   - 0.00510438782315711 x[T3,D2,K0] - 0.00404610267737068 x[T3,D3,K0]
   - 0.00282387578126441 x[T3,D4,K0] - 0.00178236505495391 x[T3,S0,K0]
   - 0.00178236505495391 x[T3,E0,K0] - 0.00302887924679368 x[T4,T0,K0]
   - 0.00384373538865176 x[T4,T1,K0] - 0.00325737284718745 x[T4,T2,K0]
   - 0.00559798951825534 x[T4,T3,K0] - 0.00736618107089855 x[T4,D0,K0]
   - 0.00939613753004283 x[T4,D1,K0] - 0.00678115257098264 x[T4,D2,K0]
   - 0.00205318470663248 x[T4,D3,K0] - 0.00283531410832402 x[T4,D4,K0]
   - 0.00736618107089855 x[T4,S0,K0] - 0.00736618107089855 x[T4,E0,K0]
   - 0.00436092895076471 x[D0,T0,K0] - 0.00718770551882053 x[D0,T1,K0]
   - 0.00515797479425516 x[D0,T2,K0] - 0.00178236505495391 x[D0,T3,K0]
   - 0.00736618107089855 x[D0,T4,K0] - 0.00325057598361956 x[D0,D1,K0]
   - 0.00594975892284091 x[D0,D2,K0] - 0.00581659779588143 x[D0,D3,K0]
   - 0.00460623702970395 x[D0,D4,K0] - 0.00646502801431113 x[D1,T0,K0]
   - 0.0101325531259056 x[D1,T1,K0] - 0.00642015720686641 x[D1,T2,K0]
   - 0.00452699057783865 x[D1,T3,K0] - 0.00939613753004283 x[D1,T4,K0]
   - 0.00325057598361956 x[D1,D0,K0] - 0.00920023720050849 x[D1,D2,K0]
   - 0.00832345306953024 x[D1,D3,K0] - 0.00701917406652495 x[D1,D4,K0]
   - 0.00325057598361956 x[D1,S0,K0] - 0.00325057598361956 x[D1,E0,K0]
   - 0.00562256060131255 x[D2,T0,K0] - 0.00355445103821111 x[D2,T1,K0]
   - 0.00734907268095279 x[D2,T2,K0] - 0.00510438782315711 x[D2,T3,K0]
   - 0.00678115257098264 x[D2,T4,K0] - 0.00594975892284091 x[D2,D0,K0]
   - 0.00920023720050849 x[D2,D1,K0] - 0.0048156943498469 x[D2,D3,K0]
   - 0.00491784754563372 x[D2,D4,K0] - 0.00594975892284091 x[D2,S0,K0]
   - 0.00594975892284091 x[D2,E0,K0] - 0.00199867721645174 x[D3,T0,K0]
   - 0.00251668 x[D3,T1,K0] - 0.00328891646051866 x[D3,T2,K0]
   - 0.00404610267737068 x[D3,T3,K0] - 0.00205318470663248 x[D3,T4,K0]
   - 0.00581659779588143 x[D3,D0,K0] - 0.00832345306953024 x[D3,D1,K0]
   - 0.0048156943498469 x[D3,D2,K0] - 0.00130559731212578 x[D3,D4,K0]
   - 0.00581659779588143 x[D3,S0,K0] - 0.00581659779588143 x[D3,E0,K0]
   - 8.3438018577635699e-04 x[D4,T0,K0] - 0.00353347605049149 x[D4,T1,K0]
   - 0.00248573892826641 x[D4,T2,K0] - 0.00282387578126441 x[D4,T3,K0]
   - 0.00283531410832402 x[D4,T4,K0] - 0.00460623702970395 x[D4,D0,K0]
   - 0.00701917406652495 x[D4,D1,K0] - 0.00491784754563372 x[D4,D2,K0]
   - 0.00130559731212578 x[D4,D3,K0] - 0.00460623702970395 x[D4,S0,K0]
   - 0.00460623702970395 x[D4,E0,K0] - 0.00436092895076471 x[S0,T0,K0]
   - 0.00718770551882053 x[S0,T1,K0] - 0.00515797479425516 x[S0,T2,K0]
   - 0.00178236505495391 x[S0,T3,K0] - 0.00736618107089855 x[S0,T4,K0]
   - 0.00325057598361956 x[S0,D1,K0] - 0.00594975892284091 x[S0,D2,K0]
   - 0.00581659779588143 x[S0,D3,K0] - 0.00460623702970395 x[S0,D4,K0]
   - 0.00436092895076471 x[E0,T0,K0] - 0.00718770551882053 x[E0,T1,K0]
   - 0.00515797479425516 x[E0,T2,K0] - 0.00178236505495391 x[E0,T3,K0]
   - 0.00736618107089855 x[E0,T4,K0] - 0.00325057598361956 x[E0,D1,K0]
   - 0.00594975892284091 x[E0,D2,K0] - 0.00581659779588143 x[E0,D3,K0]
   - 0.00460623702970395 x[E0,D4,K0] + y[T0,K0] + y[T1,K0] + y[T2,K0]
   + y[T3,K0] + y[T4,K0] - z >= 0
 c1[K1]: - 0.00435462552146052 x[T0,T1,K1]
   - 0.00172652829564836 x[T0,T2,K1] - 0.00262500601054654 x[T0,T3,K1]
   - 0.00302887924679368 x[T0,T4,K1] - 0.00436092895076471 x[T0,D0,K1]
   - 0.00646502801431113 x[T0,D1,K1] - 0.00562256060131255 x[T0,D2,K1]
   - 0.00199867721645174 x[T0,D3,K1] - 8.3438018577635699e-04 x[T0,D4,K1]
   - 0.00436092895076471 x[T0,S0,K1] - 0.00436092895076471 x[T0,E0,K1]
   - 0.00435462552146052 x[T1,T0,K1] - 0.00580012741915743 x[T1,T2,K1]
   - 0.00561135736331617 x[T1,T3,K1] - 0.00384373538865176 x[T1,T4,K1]
   - 0.00718770551882053 x[T1,D0,K1] - 0.0101325531259056 x[T1,D1,K1]
   - 0.00355445103821111 x[T1,D2,K1] - 0.00251668 x[T1,D3,K1]
   - 0.00353347605049149 x[T1,D4,K1] - 0.00718770551882053 x[T1,S0,K1]
   - 0.00718770551882053 x[T1,E0,K1] - 0.00172652829564836 x[T2,T0,K1]
   - 0.00580012741915743 x[T2,T1,K1] - 0.00369506968301791 x[T2,T3,K1]
   - 0.00325737284718745 x[T2,T4,K1] - 0.00515797479425516 x[T2,D0,K1]
   - 0.00642015720686641 x[T2,D1,K1] - 0.00734907268095279 x[T2,D2,K1]
   - 0.00328891646051866 x[T2,D3,K1] - 0.00248573892826641 x[T2,D4,K1]
   - 0.00515797479425516 x[T2,S0,K1] - 0.00515797479425516 x[T2,E0,K1]
   - 0.00262500601054654 x[T3,T0,K1] - 0.00561135736331617 x[T3,T1,K1]
   - 0.00369506968301791 x[T3,T2,K1] - 0.00559798951825534 x[T3,T4,K1]
   - 0.00178236505495391 x[T3,D0,K1] - 0.00452699057783865 x[T3,D1,K1]
   - 0.00510438782315711 x[T3,D2,K1] - 0.00404610267737068 x[T3,D3,K1]
   - 0.00282387578126441 x[T3,D4,K1] - 0.00178236505495391 x[T3,S0,K1]
   - 0.00178236505495391 x[T3,E0,K1] - 0.00302887924679368 x[T4,T0,K1]
   - 0.00384373538865176 x[T4,T1,K1] - 0.00325737284718745 x[T4,T2,K1]
   - 0.00559798951825534 x[T4,T3,K1] - 0.00736618107089855 x[T4,D0,K1]
   - 0.00939613753004283 x[T4,D1,K1] - 0.00678115257098264 x[T4,D2,K1]
   - 0.00205318470663248 x[T4,D3,K1] - 0.00283531410832402 x[T4,D4,K1]
   - 0.00736618107089855 x[T4,S0,K1] - 0.00736618107089855 x[T4,E0,K1]
   - 0.00436092895076471 x[D0,T0,K1] - 0.00718770551882053 x[D0,T1,K1]
   - 0.00515797479425516 x[D0,T2,K1] - 0.00178236505495391 x[D0,T3,K1]
   - 0.00736618107089855 x[D0,T4,K1] - 0.00325057598361956 x[D0,D1,K1]
   - 0.00594975892284091 x[D0,D2,K1] - 0.00581659779588143 x[D0,D3,K1]
   - 0.00460623702970395 x[D0,D4,K1] - 0.00646502801431113 x[D1,T0,K1]
   - 0.0101325531259056 x[D1,T1,K1] - 0.00642015720686641 x[D1,T2,K1]
   - 0.00452699057783865 x[D1,T3,K1] - 0.00939613753004283 x[D1,T4,K1]
   - 0.00325057598361956 x[D1,D0,K1] - 0.00920023720050849 x[D1,D2,K1]
   - 0.00832345306953024 x[D1,D3,K1] - 0.00701917406652495 x[D1,D4,K1]
   - 0.00325057598361956 x[D1,S0,K1] - 0.00325057598361956 x[D1,E0,K1]
   - 0.00562256060131255 x[D2,T0,K1] - 0.00355445103821111 x[D2,T1,K1]
   - 0.00734907268095279 x[D2,T2,K1] - 0.00510438782315711 x[D2,T3,K1]
   - 0.00678115257098264 x[D2,T4,K1] - 0.00594975892284091 x[D2,D0,K1]
   - 0.00920023720050849 x[D2,D1,K1] - 0.0048156943498469 x[D2,D3,K1]
   - 0.00491784754563372 x[D2,D4,K1] - 0.00594975892284091 x[D2,S0,K1]
   - 0.00594975892284091 x[D2,E0,K1] - 0.00199867721645174 x[D3,T0,K1]
   - 0.00251668 x[D3,T1,K1] - 0.00328891646051866 x[D3,T2,K1]
   - 0.00404610267737068 x[D3,T3,K1] - 0.00205318470663248 x[D3,T4,K1]
   - 0.00581659779588143 x[D3,D0,K1] - 0.00832345306953024 x[D3,D1,K1]
   - 0.0048156943498469 x[D3,D2,K1] - 0.00130559731212578 x[D3,D4,K1]
   - 0.00581659779588143 x[D3,S0,K1] - 0.00581659779588143 x[D3,E0,K1]
   - 8.3438018577635699e-04 x[D4,T0,K1] - 0.00353347605049149 x[D4,T1,K1]
   - 0.00248573892826641 x[D4,T2,K1] - 0.00282387578126441 x[D4,T3,K1]
   - 0.00283531410832402 x[D4,T4,K1] - 0.00460623702970395 x[D4,D0,K1]
   - 0.00701917406652495 x[D4,D1,K1] - 0.00491784754563372 x[D4,D2,K1]
   - 0.00130559731212578 x[D4,D3,K1] - 0.00460623702970395 x[D4,S0,K1]
   - 0.00460623702970395 x[D4,E0,K1] - 0.00436092895076471 x[S0,T0,K1]
   - 0.00718770551882053 x[S0,T1,K1] - 0.00515797479425516 x[S0,T2,K1]
   - 0.00178236505495391 x[S0,T3,K1] - 0.00736618107089855 x[S0,T4,K1]
   - 0.00325057598361956 x[S0,D1,K1] - 0.00594975892284091 x[S0,D2,K1]
   - 0.00581659779588143 x[S0,D3,K1] - 0.00460623702970395 x[S0,D4,K1]
   - 0.00436092895076471 x[E0,T0,K1] - 0.00718770551882053 x[E0,T1,K1]
   - 0.00515797479425516 x[E0,T2,K1] - 0.00178236505495391 x[E0,T3,K1]
   - 0.00736618107089855 x[E0,T4,K1] - 0.00325057598361956 x[E0,D1,K1]
   - 0.00594975892284091 x[E0,D2,K1] - 0.00581659779588143 x[E0,D3,K1]
   - 0.00460623702970395 x[E0,D4,K1] + y[T0,K1] + y[T1,K1] + y[T2,K1]
   + y[T3,K1] + y[T4,K1] - z >= 0
 c1[K2]: - 0.00435462552146052 x[T0,T1,K2]
   - 0.00172652829564836 x[T0,T2,K2] - 0.00262500601054654 x[T0,T3,K2]
   - 0.00302887924679368 x[T0,T4,K2] - 0.00436092895076471 x[T0,D0,K2]
   - 0.00646502801431113 x[T0,D1,K2] - 0.00562256060131255 x[T0,D2,K2]
   - 0.00199867721645174 x[T0,D3,K2] - 8.3438018577635699e-04 x[T0,D4,K2]
   - 0.00436092895076471 x[T0,S0,K2] - 0.00436092895076471 x[T0,E0,K2]
   - 0.00435462552146052 x[T1,T0,K2] - 0.00580012741915743 x[T1,T2,K2]
   - 0.00561135736331617 x[T1,T3,K2] - 0.00384373538865176 x[T1,T4,K2]
   - 0.00718770551882053 x[T1,D0,K2] - 0.0101325531259056 x[T1,D1,K2]
   - 0.00355445103821111 x[T1,D2,K2] - 0.00251668 x[T1,D3,K2]
   - 0.00353347605049149 x[T1,D4,K2] - 0.00718770551882053 x[T1,S0,K2]
   - 0.00718770551882053 x[T1,E0,K2] - 0.00172652829564836 x[T2,T0,K2]
   - 0.00580012741915743 x[T2,T1,K2] - 0.00369506968301791 x[T2,T3,K2]
   - 0.00325737284718745 x[T2,T4,K2] - 0.00515797479425516 x[T2,D0,K2]
   - 0.00642015720686641 x[T2,D1,K2] - 0.00734907268095279 x[T2,D2,K2]
   - 0.00328891646051866 x[T2,D3,K2] - 0.00248573892826641 x[T2,D4,K2]
   - 0.00515797479425516 x[T2,S0,K2] - 0.00515797479425516 x[T2,E0,K2]
   - 0.00262500601054654 x[T3,T0,K2] - 0.00561135736331617 x[T3,T1,K2]
   - 0.00369506968301791 x[T3,T2,K2] - 0.00559798951825534 x[T3,T4,K2]
   - 0.00178236505495391 x[T3,D0,K2] - 0.00452699057783865 x[T3,D1,K2]
   - 0.00510438782315711 x[T3,D2,K2] - 0.00404610267737068 x[T3,D3,K2]
   - 0.00282387578126441 x[T3,D4,K2] - 0.00178236505495391 x[T3,S0,K2]
   - 0.00178236505495391 x[T3,E0,K2] - 0.00302887924679368 x[T4,T0,K2]
   - 0.00384373538865176 x[T4,T1,K2] - 0.00325737284718745 x[T4,T2,K2]
   - 0.00559798951825534 x[T4,T3,K2] - 0.00736618107089855 x[T4,D0,K2]
   - 0.00939613753004283 x[T4,D1,K2] - 0.00678115257098264 x[T4,D2,K2]
   - 0.00205318470663248 x[T4,D3,K2] - 0.00283531410832402 x[T4,D4,K2]
   - 0.00736618107089855 x[T4,S0,K2] - 0.00736618107089855 x[T4,E0,K2]
   - 0.00436092895076471 x[D0,T0,K2] - 0.00718770551882053 x[D0,T1,K2]
   - 0.00515797479425516 x[D0,T2,K2] - 0.00178236505495391 x[D0,T3,K2]
   - 0.00736618107089855 x[D0,T4,K2] - 0.00325057598361956 x[D0,D1,K2]
   - 0.00594975892284091 x[D0,D2,K2] - 0.00581659779588143 x[D0,D3,K2]
   - 0.00460623702970395 x[D0,D4,K2] - 0.00646502801431113 x[D1,T0,K2]
   - 0.0101325531259056 x[D1,T1,K2] - 0.00642015720686641 x[D1,T2,K2]
   - 0.00452699057783865 x[D1,T3,K2] - 0.00939613753004283 x[D1,T4,K2]
   - 0.00325057598361956 x[D1,D0,K2] - 0.00920023720050849 x[D1,D2,K2]
   - 0.00832345306953024 x[D1,D3,K2] - 0.00701917406652495 x[D1,D4,K2]
   - 0.00325057598361956 x[D1,S0,K2] - 0.00325057598361956 x[D1,E0,K2]
   - 0.00562256060131255 x[D2,T0,K2] - 0.00355445103821111 x[D2,T1,K2]
   - 0.00734907268095279 x[D2,T2,K2] - 0.00510438782315711 x[D2,T3,K2]
   - 0.00678115257098264 x[D2,T4,K2] - 0.00594975892284091 x[D2,D0,K2]
   - 0.00920023720050849 x[D2,D1,K2] - 0.0048156943498469 x[D2,D3,K2]
   - 0.00491784754563372 x[D2,D4,K2] - 0.00594975892284091 x[D2,S0,K2]
   - 0.00594975892284091 x[D2,E0,K2] - 0.00199867721645174 x[D3,T0,K2]
   - 0.00251668 x[D3,T1,K2] - 0.00328891646051866 x[D3,T2,K2]
   - 0.00404610267737068 x[D3,T3,K2] - 0.00205318470663248 x[D3,T4,K2]
   - 0.00581659779588143 x[D3,D0,K2] - 0.00832345306953024 x[D3,D1,K2]
   - 0.0048156943498469 x[D3,D2,K2] - 0.00130559731212578 x[D3,D4,K2]
   - 0.00581659779588143 x[D3,S0,K2] - 0.00581659779588143 x[D3,E0,K2]
   - 8.3438018577635699e-04 x[D4,T0,K2] - 0.00353347605049149 x[D4,T1,K2]
   - 0.00248573892826641 x[D4,T2,K2] - 0.00282387578126441 x[D4,T3,K2]
   - 0.00283531410832402 x[D4,T4,K2] - 0.00460623702970395 x[D4,D0,K2]
   - 0.00701917406652495 x[D4,D1,K2] - 0.00491784754563372 x[D4,D2,K2]
   - 0.00130559731212578 x[D4,D3,K2] - 0.00460623702970395 x[D4,S0,K2]
   - 0.00460623702970395 x[D4,E0,K2] - 0.00436092895076471 x[S0,T0,K2]
   - 0.00718770551882053 x[S0,T1,K2] - 0.00515797479425516 x[S0,T2,K2]
   - 0.00178236505495391 x[S0,T3,K2] - 0.00736618107089855 x[S0,T4,K2]
   - 0.00325057598361956 x[S0,D1,K2] - 0.00594975892284091 x[S0,D2,K2]
   - 0.00581659779588143 x[S0,D3,K2] - 0.00460623702970395 x[S0,D4,K2]
   - 0.00436092895076471 x[E0,T0,K2] - 0.00718770551882053 x[E0,T1,K2]
   - 0.00515797479425516 x[E0,T2,K2] - 0.00178236505495391 x[E0,T3,K2]
   - 0.00736618107089855 x[E0,T4,K2] - 0.00325057598361956 x[E0,D1,K2]
   - 0.00594975892284091 x[E0,D2,K2] - 0.00581659779588143 x[E0,D3,K2]
   - 0.00460623702970395 x[E0,D4,K2] + y[T0,K2] + y[T1,K2] + y[T2,K2]
   + y[T3,K2] + y[T4,K2] - z >= 0
 c2: x[S0,T0,K0] + x[S0,T0,K1] + x[S0,T0,K2] + x[S0,T1,K0] + x[S0,T1,K1]
   + x[S0,T1,K2] + x[S0,T2,K0] + x[S0,T2,K1] + x[S0,T2,K2] + x[S0,T3,K0]
   + x[S0,T3,K1] + x[S0,T3,K2] + x[S0,T4,K0] + x[S0,T4,K1] + x[S0,T4,K2]
   + x[S0,D0,K0] + x[S0,D0,K1] + x[S0,D0,K2] + x[S0,D1,K0] + x[S0,D1,K1]
   + x[S0,D1,K2] + x[S0,D2,K0] + x[S0,D2,K1] + x[S0,D2,K2] + x[S0,D3,K0]
   + x[S0,D3,K1] + x[S0,D3,K2] + x[S0,D4,K0] + x[S0,D4,K1] + x[S0,D4,K2]
   + x[S0,E0,K0] + x[S0,E0,K1] + x[S0,E0,K2] = 3
 c8_1[K0]: x[S0,T0,K0] + x[S0,T1,K0] + x[S0,T2,K0] + x[S0,T3,K0]
   + x[S0,T4,K0] + x[S0,D0,K0] + x[S0,D1,K0] + x[S0,D2,K0] + x[S0,D3,K0]
   + x[S0,D4,K0] + x[S0,E0,K0] = 1
 c8_1[K1]: x[S0,T0,K1] + x[S0,T1,K1] + x[S0,T2,K1] + x[S0,T3,K1]
   + x[S0,T4,K1] + x[S0,D0,K1] + x[S0,D1,K1] + x[S0,D2,K1] + x[S0,D3,K1]
   + x[S0,D4,K1] + x[S0,E0,K1] = 1
 c8_1[K2]: x[S0,T0,K2] + x[S0,T1,K2] + x[S0,T2,K2] + x[S0,T3,K2]
   + x[S0,T4,K2] + x[S0,D0,K2] + x[S0,D1,K2] + x[S0,D2,K2] + x[S0,D3,K2]
   + x[S0,D4,K2] + x[S0,E0,K2] = 1
 c8_2[K0]: x[T0,S0,K0] + x[T1,S0,K0] + x[T2,S0,K0] + x[T3,S0,K0]
   + x[T4,S0,K0] + x[D0,S0,K0] + x[D1,S0,K0] + x[D2,S0,K0] + x[D3,S0,K0]
   + x[D4,S0,K0] + x[E0,S0,K0] = 0
 c8_2[K1]: x[T0,S0,K1] + x[T1,S0,K1] + x[T2,S0,K1] + x[T3,S0,K1]
   + x[T4,S0,K1] + x[D0,S0,K1] + x[D1,S0,K1] + x[D2,S0,K1] + x[D3,S0,K1]
   + x[D4,S0,K1] + x[E0,S0,K1] = 0
 c8_2[K2]: x[T0,S0,K2] + x[T1,S0,K2] + x[T2,S0,K2] + x[T3,S0,K2]
   + x[T4,S0,K2] + x[D0,S0,K2] + x[D1,S0,K2] + x[D2,S0,K2] + x[D3,S0,K2]
   + x[D4,S0,K2] + x[E0,S0,K2] = 0
 c9_1[K0]: x[T0,E0,K0] + x[T1,E0,K0] + x[T2,E0,K0] + x[T3,E0,K0]
   + x[T4,E0,K0] + x[D0,E0,K0] + x[D1,E0,K0] + x[D2,E0,K0] + x[D3,E0,K0]
   + x[D4,E0,K0] + x[S0,E0,K0] = 1
 c9_1[K1]: x[T0,E0,K1] + x[T1,E0,K1] + x[T2,E0,K1] + x[T3,E0,K1]
   + x[T4,E0,K1] + x[D0,E0,K1] + x[D1,E0,K1] + x[D2,E0,K1] + x[D3,E0,K1]
   + x[D4,E0,K1] + x[S0,E0,K1] = 1
 c9_1[K2]: x[T0,E0,K2] + x[T1,E0,K2] + x[T2,E0,K2] + x[T3,E0,K2]
   + x[T4,E0,K2] + x[D0,E0,K2] + x[D1,E0,K2] + x[D2,E0,K2] + x[D3,E0,K2]
   + x[D4,E0,K2] + x[S0,E0,K2] = 1
 c9_2[K0]: x[E0,T0,K0] + x[E0,T1,K0] + x[E0,T2,K0] + x[E0,T3,K0]
   + x[E0,T4,K0] + x[E0,D0,K0] + x[E0,D1,K0] + x[E0,D2,K0] + x[E0,D3,K0]
   + x[E0,D4,K0] + x[E0,S0,K0] = 0
 c9_2[K1]: x[E0,T0,K1] + x[E0,T1,K1] + x[E0,T2,K1] + x[E0,T3,K1]
   + x[E0,T4,K1] + x[E0,D0,K1] + x[E0,D1,K1] + x[E0,D2,K1] + x[E0,D3,K1]
   + x[E0,D4,K1] + x[E0,S0,K1] = 0
 c9_2[K2]: x[E0,T0,K2] + x[E0,T1,K2] + x[E0,T2,K2] + x[E0,T3,K2]
   + x[E0,T4,K2] + x[E0,D0,K2] + x[E0,D1,K2] + x[E0,D2,K2] + x[E0,D3,K2]
   + x[E0,D4,K2] + x[E0,S0,K2] = 0
 c3_1: x[T0,E0,K0] + x[T0,E0,K1] + x[T0,E0,K2] + x[T1,E0,K0] + x[T1,E0,K1]
   + x[T1,E0,K2] + x[T2,E0,K0] + x[T2,E0,K1] + x[T2,E0,K2] + x[T3,E0,K0]
   + x[T3,E0,K1] + x[T3,E0,K2] + x[T4,E0,K0] + x[T4,E0,K1] + x[T4,E0,K2]
   + x[D0,E0,K0] + x[D0,E0,K1] + x[D0,E0,K2] + x[D1,E0,K0] + x[D1,E0,K1]
   + x[D1,E0,K2] + x[D2,E0,K0] + x[D2,E0,K1] + x[D2,E0,K2] + x[D3,E0,K0]
   + x[D3,E0,K1] + x[D3,E0,K2] + x[D4,E0,K0] + x[D4,E0,K1] + x[D4,E0,K2]
   + x[S0,E0,K0] + x[S0,E0,K1] + x[S0,E0,K2] = 3
 c4[T0]: y[T0,K0] + y[T0,K1] + y[T0,K2] <= 1
 c4[T1]: y[T1,K0] + y[T1,K1] + y[T1,K2] <= 1
 c4[T2]: y[T2,K0] + y[T2,K1] + y[T2,K2] <= 1
 c4[T3]: y[T3,K0] + y[T3,K1] + y[T3,K2] <= 1
 c4[T4]: y[T4,K0] + y[T4,K1] + y[T4,K2] <= 1
 c5_1[T0,K0]: - x[T0,T1,K0] - x[T0,T2,K0] - x[T0,T3,K0] - x[T0,T4,K0]
   - x[T0,D0,K0] - x[T0,D1,K0] - x[T0,D2,K0] - x[T0,D3,K0] - x[T0,D4,K0]
   - x[T0,E0,K0] + x[T1,T0,K0] + x[T2,T0,K0] + x[T3,T0,K0] + x[T4,T0,K0]
   + x[D0,T0,K0] + x[D1,T0,K0] + x[D2,T0,K0] + x[D3,T0,K0] + x[D4,T0,K0]
   + x[S0,T0,K0] = 0
 c5_1[T0,K1]: - x[T0,T1,K1] - x[T0,T2,K1] - x[T0,T3,K1] - x[T0,T4,K1]
   - x[T0,D0,K1] - x[T0,D1,K1] - x[T0,D2,K1] - x[T0,D3,K1] - x[T0,D4,K1]
   - x[T0,E0,K1] + x[T1,T0,K1] + x[T2,T0,K1] + x[T3,T0,K1] + x[T4,T0,K1]
   + x[D0,T0,K1] + x[D1,T0,K1] + x[D2,T0,K1] + x[D3,T0,K1] + x[D4,T0,K1]
   + x[S0,T0,K1] = 0
 c5_1[T0,K2]: - x[T0,T1,K2] - x[T0,T2,K2] - x[T0,T3,K2] - x[T0,T4,K2]
   - x[T0,D0,K2] - x[T0,D1,K2] - x[T0,D2,K2] - x[T0,D3,K2] - x[T0,D4,K2]
   - x[T0,E0,K2] + x[T1,T0,K2] + x[T2,T0,K2] + x[T3,T0,K2] + x[T4,T0,K2]
   + x[D0,T0,K2] + x[D1,T0,K2] + x[D2,T0,K2] + x[D3,T0,K2] + x[D4,T0,K2]
   + x[S0,T0,K2] = 0
 c5_1[T1,K0]: x[T0,T1,K0] - x[T1,T0,K0] - x[T1,T2,K0] - x[T1,T3,K0]
   - x[T1,T4,K0] - x[T1,D0,K0] - x[T1,D1,K0] - x[T1,D2,K0] - x[T1,D3,K0]
   - x[T1,D4,K0] - x[T1,E0,K0] + x[T2,T1,K0] + x[T3,T1,K0] + x[T4,T1,K0]
   + x[D0,T1,K0] + x[D1,T1,K0] + x[D2,T1,K0] + x[D3,T1,K0] + x[D4,T1,K0]
   + x[S0,T1,K0] = 0
 c5_1[T1,K1]: x[T0,T1,K1] - x[T1,T0,K1] - x[T1,T2,K1] - x[T1,T3,K1]
   - x[T1,T4,K1] - x[T1,D0,K1] - x[T1,D1,K1] - x[T1,D2,K1] - x[T1,D3,K1]
   - x[T1,D4,K1] - x[T1,E0,K1] + x[T2,T1,K1] + x[T3,T1,K1] + x[T4,T1,K1]
   + x[D0,T1,K1] + x[D1,T1,K1] + x[D2,T1,K1] + x[D3,T1,K1] + x[D4,T1,K1]
   + x[S0,T1,K1] = 0
 c5_1[T1,K2]: x[T0,T1,K2] - x[T1,T0,K2] - x[T1,T2,K2] - x[T1,T3,K2]
   - x[T1,T4,K2] - x[T1,D0,K2] - x[T1,D1,K2] - x[T1,D2,K2] - x[T1,D3,K2]
   - x[T1,D4,K2] - x[T1,E0,K2] + x[T2,T1,K2] + x[T3,T1,K2] + x[T4,T1,K2]
   + x[D0,T1,K2] + x[D1,T1,K2] + x[D2,T1,K2] + x[D3,T1,K2] + x[D4,T1,K2]
   + x[S0,T1,K2] = 0
 c5_1[T2,K0]: x[T0,T2,K0] + x[T1,T2,K0] - x[T2,T0,K0] - x[T2,T1,K0]
   - x[T2,T3,K0] - x[T2,T4,K0] - x[T2,D0,K0] - x[T2,D1,K0] - x[T2,D2,K0]
   - x[T2,D3,K0] - x[T2,D4,K0] - x[T2,E0,K0] + x[T3,T2,K0] + x[T4,T2,K0]
   + x[D0,T2,K0] + x[D1,T2,K0] + x[D2,T2,K0] + x[D3,T2,K0] + x[D4,T2,K0]
   + x[S0,T2,K0] = 0
 c5_1[T2,K1]: x[T0,T2,K1] + x[T1,T2,K1] - x[T2,T0,K1] - x[T2,T1,K1]
   - x[T2,T3,K1] - x[T2,T4,K1] - x[T2,D0,K1] - x[T2,D1,K1] - x[T2,D2,K1]
   - x[T2,D3,K1] - x[T2,D4,K1] - x[T2,E0,K1] + x[T3,T2,K1] + x[T4,T2,K1]
   + x[D0,T2,K1] + x[D1,T2,K1] + x[D2,T2,K1] + x[D3,T2,K1] + x[D4,T2,K1]
   + x[S0,T2,K1] = 0
 c5_1[T2,K2]: x[T0,T2,K2] + x[T1,T2,K2] - x[T2,T0,K2] - x[T2,T1,K2]
   - x[T2,T3,K2] - x[T2,T4,K2] - x[T2,D0,K2] - x[T2,D1,K2] - x[T2,D2,K2]
   - x[T2,D3,K2] - x[T2,D4,K2] - x[T2,E0,K2] + x[T3,T2,K2] + x[T4,T2,K2]
   + x[D0,T2,K2] + x[D1,T2,K2] + x[D2,T2,K2] + x[D3,T2,K2] + x[D4,T2,K2]
   + x[S0,T2,K2] = 0
 c5_1[T3,K0]: x[T0,T3,K0] + x[T1,T3,K0] + x[T2,T3,K0] - x[T3,T0,K0]
   - x[T3,T1,K0] - x[T3,T2,K0] - x[T3,T4,K0] - x[T3,D0,K0] - x[T3,D1,K0]
   - x[T3,D2,K0] - x[T3,D3,K0] - x[T3,D4,K0] - x[T3,E0,K0] + x[T4,T3,K0]
   + x[D0,T3,K0] + x[D1,T3,K0] + x[D2,T3,K0] + x[D3,T3,K0] + x[D4,T3,K0]
   + x[S0,T3,K0] = 0
 c5_1[T3,K1]: x[T0,T3,K1] + x[T1,T3,K1] + x[T2,T3,K1] - x[T3,T0,K1]
   - x[T3,T1,K1] - x[T3,T2,K1] - x[T3,T4,K1] - x[T3,D0,K1] - x[T3,D1,K1]
   - x[T3,D2,K1] - x[T3,D3,K1] - x[T3,D4,K1] - x[T3,E0,K1] + x[T4,T3,K1]
   + x[D0,T3,K1] + x[D1,T3,K1] + x[D2,T3,K1] + x[D3,T3,K1] + x[D4,T3,K1]
   + x[S0,T3,K1] = 0
 c5_1[T3,K2]: x[T0,T3,K2] + x[T1,T3,K2] + x[T2,T3,K2] - x[T3,T0,K2]
   - x[T3,T1,K2] - x[T3,T2,K2] - x[T3,T4,K2] - x[T3,D0,K2] - x[T3,D1,K2]
   - x[T3,D2,K2] - x[T3,D3,K2] - x[T3,D4,K2] - x[T3,E0,K2] + x[T4,T3,K2]
   + x[D0,T3,K2] + x[D1,T3,K2] + x[D2,T3,K2] + x[D3,T3,K2] + x[D4,T3,K2]
   + x[S0,T3,K2] = 0
 c5_1[T4,K0]: x[T0,T4,K0] + x[T1,T4,K0] + x[T2,T4,K0] + x[T3,T4,K0]
   - x[T4,T0,K0] - x[T4,T1,K0] - x[T4,T2,K0] - x[T4,T3,K0] - x[T4,D0,K0]
   - x[T4,D1,K0] - x[T4,D2,K0] - x[T4,D3,K0] - x[T4,D4,K0] - x[T4,E0,K0]
   + x[D0,T4,K0] + x[D1,T4,K0] + x[D2,T4,K0] + x[D3,T4,K0] + x[D4,T4,K0]
   + x[S0,T4,K0] = 0
 c5_1[T4,K1]: x[T0,T4,K1] + x[T1,T4,K1] + x[T2,T4,K1] + x[T3,T4,K1]
   - x[T4,T0,K1] - x[T4,T1,K1] - x[T4,T2,K1] - x[T4,T3,K1] - x[T4,D0,K1]
   - x[T4,D1,K1] - x[T4,D2,K1] - x[T4,D3,K1] - x[T4,D4,K1] - x[T4,E0,K1]
   + x[D0,T4,K1] + x[D1,T4,K1] + x[D2,T4,K1] + x[D3,T4,K1] + x[D4,T4,K1]
   + x[S0,T4,K1] = 0
 c5_1[T4,K2]: x[T0,T4,K2] + x[T1,T4,K2] + x[T2,T4,K2] + x[T3,T4,K2]
   - x[T4,T0,K2] - x[T4,T1,K2] - x[T4,T2,K2] - x[T4,T3,K2] - x[T4,D0,K2]
   - x[T4,D1,K2] - x[T4,D2,K2] - x[T4,D3,K2] - x[T4,D4,K2] - x[T4,E0,K2]
   + x[D0,T4,K2] + x[D1,T4,K2] + x[D2,T4,K2] + x[D3,T4,K2] + x[D4,T4,K2]
   + x[S0,T4,K2] = 0
 c5_1[D0,K0]: x[T0,D0,K0] + x[T1,D0,K0] + x[T2,D0,K0] + x[T3,D0,K0]
   + x[T4,D0,K0] - x[D0,T0,K0] - x[D0,T1,K0] - x[D0,T2,K0] - x[D0,T3,K0]
   - x[D0,T4,K0] - x[D0,D1,K0] - x[D0,D2,K0] - x[D0,D3,K0] - x[D0,D4,K0]
   - x[D0,E0,K0] + x[D1,D0,K0] + x[D2,D0,K0] + x[D3,D0,K0] + x[D4,D0,K0]
   + x[S0,D0,K0] = 0
 c5_1[D0,K1]: x[T0,D0,K1] + x[T1,D0,K1] + x[T2,D0,K1] + x[T3,D0,K1]
   + x[T4,D0,K1] - x[D0,T0,K1] - x[D0,T1,K1] - x[D0,T2,K1] - x[D0,T3,K1]
   - x[D0,T4,K1] - x[D0,D1,K1] - x[D0,D2,K1] - x[D0,D3,K1] - x[D0,D4,K1]
   - x[D0,E0,K1] + x[D1,D0,K1] + x[D2,D0,K1] + x[D3,D0,K1] + x[D4,D0,K1]
   + x[S0,D0,K1] = 0
 c5_1[D0,K2]: x[T0,D0,K2] + x[T1,D0,K2] + x[T2,D0,K2] + x[T3,D0,K2]
   + x[T4,D0,K2] - x[D0,T0,K2] - x[D0,T1,K2] - x[D0,T2,K2] - x[D0,T3,K2]
   - x[D0,T4,K2] - x[D0,D1,K2] - x[D0,D2,K2] - x[D0,D3,K2] - x[D0,D4,K2]
   - x[D0,E0,K2] + x[D1,D0,K2] + x[D2,D0,K2] + x[D3,D0,K2] + x[D4,D0,K2]
   + x[S0,D0,K2] = 0
 c5_1[D1,K0]: x[T0,D1,K0] + x[T1,D1,K0] + x[T2,D1,K0] + x[T3,D1,K0]
   + x[T4,D1,K0] + x[D0,D1,K0] - x[D1,T0,K0] - x[D1,T1,K0] - x[D1,T2,K0]
   - x[D1,T3,K0] - x[D1,T4,K0] - x[D1,D0,K0] - x[D1,D2,K0] - x[D1,D3,K0]
   - x[D1,D4,K0] - x[D1,E0,K0] + x[D2,D1,K0] + x[D3,D1,K0] + x[D4,D1,K0]
   + x[S0,D1,K0] = 0
 c5_1[D1,K1]: x[T0,D1,K1] + x[T1,D1,K1] + x[T2,D1,K1] + x[T3,D1,K1]
   + x[T4,D1,K1] + x[D0,D1,K1] - x[D1,T0,K1] - x[D1,T1,K1] - x[D1,T2,K1]
   - x[D1,T3,K1] - x[D1,T4,K1] - x[D1,D0,K1] - x[D1,D2,K1] - x[D1,D3,K1]
   - x[D1,D4,K1] - x[D1,E0,K1] + x[D2,D1,K1] + x[D3,D1,K1] + x[D4,D1,K1]
   + x[S0,D1,K1] = 0
 c5_1[D1,K2]: x[T0,D1,K2] + x[T1,D1,K2] + x[T2,D1,K2] + x[T3,D1,K2]
   + x[T4,D1,K2] + x[D0,D1,K2] - x[D1,T0,K2] - x[D1,T1,K2] - x[D1,T2,K2]
   - x[D1,T3,K2] - x[D1,T4,K2] - x[D1,D0,K2] - x[D1,D2,K2] - x[D1,D3,K2]
   - x[D1,D4,K2] - x[D1,E0,K2] + x[D2,D1,K2] + x[D3,D1,K2] + x[D4,D1,K2]
   + x[S0,D1,K2] = 0
 c5_1[D2,K0]: x[T0,D2,K0] + x[T1,D2,K0] + x[T2,D2,K0] + x[T3,D2,K0]
   + x[T4,D2,K0] + x[D0,D2,K0] + x[D1,D2,K0] - x[D2,T0,K0] - x[D2,T1,K0]
   - x[D2,T2,K0] - x[D2,T3,K0] - x[D2,T4,K0] - x[D2,D0,K0] - x[D2,D1,K0]
   - x[D2,D3,K0] - x[D2,D4,K0] - x[D2,E0,K0] + x[D3,D2,K0] + x[D4,D2,K0]
   + x[S0,D2,K0] = 0
 c5_1[D2,K1]: x[T0,D2,K1] + x[T1,D2,K1] + x[T2,D2,K1] + x[T3,D2,K1]
   + x[T4,D2,K1] + x[D0,D2,K1] + x[D1,D2,K1] - x[D2,T0,K1] - x[D2,T1,K1]
   - x[D2,T2,K1] - x[D2,T3,K1] - x[D2,T4,K1] - x[D2,D0,K1] - x[D2,D1,K1]
   - x[D2,D3,K1] - x[D2,D4,K1] - x[D2,E0,K1] + x[D3,D2,K1] + x[D4,D2,K1]
   + x[S0,D2,K1] = 0
 c5_1[D2,K2]: x[T0,D2,K2] + x[T1,D2,K2] + x[T2,D2,K2] + x[T3,D2,K2]
   + x[T4,D2,K2] + x[D0,D2,K2] + x[D1,D2,K2] - x[D2,T0,K2] - x[D2,T1,K2]
   - x[D2,T2,K2] - x[D2,T3,K2] - x[D2,T4,K2] - x[D2,D0,K2] - x[D2,D1,K2]
   - x[D2,D3,K2] - x[D2,D4,K2] - x[D2,E0,K2] + x[D3,D2,K2] + x[D4,D2,K2]
   + x[S0,D2,K2] = 0
 c5_1[D3,K0]: x[T0,D3,K0] + x[T1,D3,K0] + x[T2,D3,K0] + x[T3,D3,K0]
   + x[T4,D3,K0] + x[D0,D3,K0] + x[D1,D3,K0] + x[D2,D3,K0] - x[D3,T0,K0]
   - x[D3,T1,K0] - x[D3,T2,K0] - x[D3,T3,K0] - x[D3,T4,K0] - x[D3,D0,K0]
   - x[D3,D1,K0] - x[D3,D2,K0] - x[D3,D4,K0] - x[D3,E0,K0] + x[D4,D3,K0]
   + x[S0,D3,K0] = 0
 c5_1[D3,K1]: x[T0,D3,K1] + x[T1,D3,K1] + x[T2,D3,K1] + x[T3,D3,K1]
   + x[T4,D3,K1] + x[D0,D3,K1] + x[D1,D3,K1] + x[D2,D3,K1] - x[D3,T0,K1]
   - x[D3,T1,K1] - x[D3,T2,K1] - x[D3,T3,K1] - x[D3,T4,K1] - x[D3,D0,K1]
   - x[D3,D1,K1] - x[D3,D2,K1] - x[D3,D4,K1] - x[D3,E0,K1] + x[D4,D3,K1]
   + x[S0,D3,K1] = 0
 c5_1[D3,K2]: x[T0,D3,K2] + x[T1,D3,K2] + x[T2,D3,K2] + x[T3,D3,K2]
   + x[T4,D3,K2] + x[D0,D3,K2] + x[D1,D3,K2] + x[D2,D3,K2] - x[D3,T0,K2]
   - x[D3,T1,K2] - x[D3,T2,K2] - x[D3,T3,K2] - x[D3,T4,K2] - x[D3,D0,K2]
   - x[D3,D1,K2] - x[D3,D2,K2] - x[D3,D4,K2] - x[D3,E0,K2] + x[D4,D3,K2]
   + x[S0,D3,K2] = 0
 c5_1[D4,K0]: x[T0,D4,K0] + x[T1,D4,K0] + x[T2,D4,K0] + x[T3,D4,K0]
   + x[T4,D4,K0] + x[D0,D4,K0] + x[D1,D4,K0] + x[D2,D4,K0] + x[D3,D4,K0]
   - x[D4,T0,K0] - x[D4,T1,K0] - x[D4,T2,K0] - x[D4,T3,K0] - x[D4,T4,K0]
   - x[D4,D0,K0] - x[D4,D1,K0] - x[D4,D2,K0] - x[D4,D3,K0] - x[D4,E0,K0]
   + x[S0,D4,K0] = 0
 c5_1[D4,K1]: x[T0,D4,K1] + x[T1,D4,K1] + x[T2,D4,K1] + x[T3,D4,K1]
   + x[T4,D4,K1] + x[D0,D4,K1] + x[D1,D4,K1] + x[D2,D4,K1] + x[D3,D4,K1]
   - x[D4,T0,K1] - x[D4,T1,K1] - x[D4,T2,K1] - x[D4,T3,K1] - x[D4,T4,K1]
   - x[D4,D0,K1] - x[D4,D1,K1] - x[D4,D2,K1] - x[D4,D3,K1] - x[D4,E0,K1]
   + x[S0,D4,K1] = 0
 c5_1[D4,K2]: x[T0,D4,K2] + x[T1,D4,K2] + x[T2,D4,K2] + x[T3,D4,K2]
   + x[T4,D4,K2] + x[D0,D4,K2] + x[D1,D4,K2] + x[D2,D4,K2] + x[D3,D4,K2]
   - x[D4,T0,K2] - x[D4,T1,K2] - x[D4,T2,K2] - x[D4,T3,K2] - x[D4,T4,K2]
   - x[D4,D0,K2] - x[D4,D1,K2] - x[D4,D2,K2] - x[D4,D3,K2] - x[D4,E0,K2]
   + x[S0,D4,K2] = 0
 c5_2[T0,K0]: x[T1,T0,K0] + x[T2,T0,K0] + x[T3,T0,K0] + x[T4,T0,K0]
   + x[D0,T0,K0] + x[D1,T0,K0] + x[D2,T0,K0] + x[D3,T0,K0] + x[D4,T0,K0]
   + x[S0,T0,K0] + x[E0,T0,K0] - y[T0,K0] = 0
 c5_2[T0,K1]: x[T1,T0,K1] + x[T2,T0,K1] + x[T3,T0,K1] + x[T4,T0,K1]
   + x[D0,T0,K1] + x[D1,T0,K1] + x[D2,T0,K1] + x[D3,T0,K1] + x[D4,T0,K1]
   + x[S0,T0,K1] + x[E0,T0,K1] - y[T0,K1] = 0
 c5_2[T0,K2]: x[T1,T0,K2] + x[T2,T0,K2] + x[T3,T0,K2] + x[T4,T0,K2]
   + x[D0,T0,K2] + x[D1,T0,K2] + x[D2,T0,K2] + x[D3,T0,K2] + x[D4,T0,K2]
   + x[S0,T0,K2] + x[E0,T0,K2] - y[T0,K2] = 0
 c5_2[T1,K0]: x[T0,T1,K0] + x[T2,T1,K0] + x[T3,T1,K0] + x[T4,T1,K0]
   + x[D0,T1,K0] + x[D1,T1,K0] + x[D2,T1,K0] + x[D3,T1,K0] + x[D4,T1,K0]
   + x[S0,T1,K0] + x[E0,T1,K0] - y[T1,K0] = 0
 c5_2[T1,K1]: x[T0,T1,K1] + x[T2,T1,K1] + x[T3,T1,K1] + x[T4,T1,K1]
   + x[D0,T1,K1] + x[D1,T1,K1] + x[D2,T1,K1] + x[D3,T1,K1] + x[D4,T1,K1]
   + x[S0,T1,K1] + x[E0,T1,K1] - y[T1,K1] = 0
 c5_2[T1,K2]: x[T0,T1,K2] + x[T2,T1,K2] + x[T3,T1,K2] + x[T4,T1,K2]
   + x[D0,T1,K2] + x[D1,T1,K2] + x[D2,T1,K2] + x[D3,T1,K2] + x[D4,T1,K2]
   + x[S0,T1,K2] + x[E0,T1,K2] - y[T1,K2] = 0
 c5_2[T2,K0]: x[T0,T2,K0] + x[T1,T2,K0] + x[T3,T2,K0] + x[T4,T2,K0]
   + x[D0,T2,K0] + x[D1,T2,K0] + x[D2,T2,K0] + x[D3,T2,K0] + x[D4,T2,K0]
   + x[S0,T2,K0] + x[E0,T2,K0] - y[T2,K0] = 0
 c5_2[T2,K1]: x[T0,T2,K1] + x[T1,T2,K1] + x[T3,T2,K1] + x[T4,T2,K1]
   + x[D0,T2,K1] + x[D1,T2,K1] + x[D2,T2,K1] + x[D3,T2,K1] + x[D4,T2,K1]
   + x[S0,T2,K1] + x[E0,T2,K1] - y[T2,K1] = 0
 c5_2[T2,K2]: x[T0,T2,K2] + x[T1,T2,K2] + x[T3,T2,K2] + x[T4,T2,K2]
   + x[D0,T2,K2] + x[D1,T2,K2] + x[D2,T2,K2] + x[D3,T2,K2] + x[D4,T2,K2]
   + x[S0,T2,K2] + x[E0,T2,K2] - y[T2,K2] = 0
 c5_2[T3,K0]: x[T0,T3,K0] + x[T1,T3,K0] + x[T2,T3,K0] + x[T4,T3,K0]
   + x[D0,T3,K0] + x[D1,T3,K0] + x[D2,T3,K0] + x[D3,T3,K0] + x[D4,T3,K0]
   + x[S0,T3,K0] + x[E0,T3,K0] - y[T3,K0] = 0
 c5_2[T3,K1]: x[T0,T3,K1] + x[T1,T3,K1] + x[T2,T3,K1] + x[T4,T3,K1]
   + x[D0,T3,K1] + x[D1,T3,K1] + x[D2,T3,K1] + x[D3,T3,K1] + x[D4,T3,K1]
   + x[S0,T3,K1] + x[E0,T3,K1] - y[T3,K1] = 0
 c5_2[T3,K2]: x[T0,T3,K2] + x[T1,T3,K2] + x[T2,T3,K2] + x[T4,T3,K2]
   + x[D0,T3,K2] + x[D1,T3,K2] + x[D2,T3,K2] + x[D3,T3,K2] + x[D4,T3,K2]
   + x[S0,T3,K2] + x[E0,T3,K2] - y[T3,K2] = 0
 c5_2[T4,K0]: x[T0,T4,K0] + x[T1,T4,K0] + x[T2,T4,K0] + x[T3,T4,K0]
   + x[D0,T4,K0] + x[D1,T4,K0] + x[D2,T4,K0] + x[D3,T4,K0] + x[D4,T4,K0]
   + x[S0,T4,K0] + x[E0,T4,K0] - y[T4,K0] = 0
 c5_2[T4,K1]: x[T0,T4,K1] + x[T1,T4,K1] + x[T2,T4,K1] + x[T3,T4,K1]
   + x[D0,T4,K1] + x[D1,T4,K1] + x[D2,T4,K1] + x[D3,T4,K1] + x[D4,T4,K1]
   + x[S0,T4,K1] + x[E0,T4,K1] - y[T4,K1] = 0
 c5_2[T4,K2]: x[T0,T4,K2] + x[T1,T4,K2] + x[T2,T4,K2] + x[T3,T4,K2]
   + x[D0,T4,K2] + x[D1,T4,K2] + x[D2,T4,K2] + x[D3,T4,K2] + x[D4,T4,K2]
   + x[S0,T4,K2] + x[E0,T4,K2] - y[T4,K2] = 0
 c5_3[T0,K0]: x[T0,T1,K0] + x[T0,T2,K0] + x[T0,T3,K0] + x[T0,T4,K0]
   + x[T0,D0,K0] + x[T0,D1,K0] + x[T0,D2,K0] + x[T0,D3,K0] + x[T0,D4,K0]
   + x[T0,S0,K0] + x[T0,E0,K0] - y[T0,K0] = 0
 c5_3[T0,K1]: x[T0,T1,K1] + x[T0,T2,K1] + x[T0,T3,K1] + x[T0,T4,K1]
   + x[T0,D0,K1] + x[T0,D1,K1] + x[T0,D2,K1] + x[T0,D3,K1] + x[T0,D4,K1]
   + x[T0,S0,K1] + x[T0,E0,K1] - y[T0,K1] = 0
 c5_3[T0,K2]: x[T0,T1,K2] + x[T0,T2,K2] + x[T0,T3,K2] + x[T0,T4,K2]
   + x[T0,D0,K2] + x[T0,D1,K2] + x[T0,D2,K2] + x[T0,D3,K2] + x[T0,D4,K2]
   + x[T0,S0,K2] + x[T0,E0,K2] - y[T0,K2] = 0
 c5_3[T1,K0]: x[T1,T0,K0] + x[T1,T2,K0] + x[T1,T3,K0] + x[T1,T4,K0]
   + x[T1,D0,K0] + x[T1,D1,K0] + x[T1,D2,K0] + x[T1,D3,K0] + x[T1,D4,K0]
   + x[T1,S0,K0] + x[T1,E0,K0] - y[T1,K0] = 0
 c5_3[T1,K1]: x[T1,T0,K1] + x[T1,T2,K1] + x[T1,T3,K1] + x[T1,T4,K1]
   + x[T1,D0,K1] + x[T1,D1,K1] + x[T1,D2,K1] + x[T1,D3,K1] + x[T1,D4,K1]
   + x[T1,S0,K1] + x[T1,E0,K1] - y[T1,K1] = 0
 c5_3[T1,K2]: x[T1,T0,K2] + x[T1,T2,K2] + x[T1,T3,K2] + x[T1,T4,K2]
   + x[T1,D0,K2] + x[T1,D1,K2] + x[T1,D2,K2] + x[T1,D3,K2] + x[T1,D4,K2]
   + x[T1,S0,K2] + x[T1,E0,K2] - y[T1,K2] = 0
 c5_3[T2,K0]: x[T2,T0,K0] + x[T2,T1,K0] + x[T2,T3,K0] + x[T2,T4,K0]
   + x[T2,D0,K0] + x[T2,D1,K0] + x[T2,D2,K0] + x[T2,D3,K0] + x[T2,D4,K0]
   + x[T2,S0,K0] + x[T2,E0,K0] - y[T2,K0] = 0
 c5_3[T2,K1]: x[T2,T0,K1] + x[T2,T1,K1] + x[T2,T3,K1] + x[T2,T4,K1]
   + x[T2,D0,K1] + x[T2,D1,K1] + x[T2,D2,K1] + x[T2,D3,K1] + x[T2,D4,K1]
   + x[T2,S0,K1] + x[T2,E0,K1] - y[T2,K1] = 0
 c5_3[T2,K2]: x[T2,T0,K2] + x[T2,T1,K2] + x[T2,T3,K2] + x[T2,T4,K2]
   + x[T2,D0,K2] + x[T2,D1,K2] + x[T2,D2,K2] + x[T2,D3,K2] + x[T2,D4,K2]
   + x[T2,S0,K2] + x[T2,E0,K2] - y[T2,K2] = 0
 c5_3[T3,K0]: x[T3,T0,K0] + x[T3,T1,K0] + x[T3,T2,K0] + x[T3,T4,K0]
   + x[T3,D0,K0] + x[T3,D1,K0] + x[T3,D2,K0] + x[T3,D3,K0] + x[T3,D4,K0]
   + x[T3,S0,K0] + x[T3,E0,K0] - y[T3,K0] = 0
 c5_3[T3,K1]: x[T3,T0,K1] + x[T3,T1,K1] + x[T3,T2,K1] + x[T3,T4,K1]
   + x[T3,D0,K1] + x[T3,D1,K1] + x[T3,D2,K1] + x[T3,D3,K1] + x[T3,D4,K1]
   + x[T3,S0,K1] + x[T3,E0,K1] - y[T3,K1] = 0
 c5_3[T3,K2]: x[T3,T0,K2] + x[T3,T1,K2] + x[T3,T2,K2] + x[T3,T4,K2]
   + x[T3,D0,K2] + x[T3,D1,K2] + x[T3,D2,K2] + x[T3,D3,K2] + x[T3,D4,K2]
   + x[T3,S0,K2] + x[T3,E0,K2] - y[T3,K2] = 0
 c5_3[T4,K0]: x[T4,T0,K0] + x[T4,T1,K0] + x[T4,T2,K0] + x[T4,T3,K0]
   + x[T4,D0,K0] + x[T4,D1,K0] + x[T4,D2,K0] + x[T4,D3,K0] + x[T4,D4,K0]
   + x[T4,S0,K0] + x[T4,E0,K0] - y[T4,K0] = 0
 c5_3[T4,K1]: x[T4,T0,K1] + x[T4,T1,K1] + x[T4,T2,K1] + x[T4,T3,K1]
   + x[T4,D0,K1] + x[T4,D1,K1] + x[T4,D2,K1] + x[T4,D3,K1] + x[T4,D4,K1]
   + x[T4,S0,K1] + x[T4,E0,K1] - y[T4,K1] = 0
 c5_3[T4,K2]: x[T4,T0,K2] + x[T4,T1,K2] + x[T4,T2,K2] + x[T4,T3,K2]
   + x[T4,D0,K2] + x[T4,D1,K2] + x[T4,D2,K2] + x[T4,D3,K2] + x[T4,D4,K2]
   + x[T4,S0,K2] + x[T4,E0,K2] - y[T4,K2] = 0
 c11[K0]: - x[T0,T1,K0] - x[T0,T2,K0] - x[T0,T3,K0] - x[T0,T4,K0]
   - x[T0,D0,K0] - x[T0,D1,K0] - x[T0,D2,K0] - x[T0,D3,K0] - x[T0,D4,K0]
   - x[T0,S0,K0] - x[T0,E0,K0] - x[T1,T0,K0] - x[T1,T2,K0] - x[T1,T3,K0]
   - x[T1,T4,K0] - x[T1,D0,K0] - x[T1,D1,K0] - x[T1,D2,K0] - x[T1,D3,K0]
   - x[T1,D4,K0] - x[T1,S0,K0] - x[T1,E0,K0] - x[T2,T0,K0] - x[T2,T1,K0]
   - x[T2,T3,K0] - x[T2,T4,K0] - x[T2,D0,K0] - x[T2,D1,K0] - x[T2,D2,K0]
   - x[T2,D3,K0] - x[T2,D4,K0] - x[T2,S0,K0] - x[T2,E0,K0] - x[T3,T0,K0]
   - x[T3,T1,K0] - x[T3,T2,K0] - x[T3,T4,K0] - x[T3,D0,K0] - x[T3,D1,K0]
   - x[T3,D2,K0] - x[T3,D3,K0] - x[T3,D4,K0] - x[T3,S0,K0] - x[T3,E0,K0]
   - x[T4,T0,K0] - x[T4,T1,K0] - x[T4,T2,K0] - x[T4,T3,K0] - x[T4,D0,K0]
   - x[T4,D1,K0] - x[T4,D2,K0] - x[T4,D3,K0] - x[T4,D4,K0] - x[T4,S0,K0]
   - x[T4,E0,K0] - p[T0,S0,K0] - p[T1,S0,K0] - p[T2,S0,K0] - p[T3,S0,K0]
   - p[T4,S0,K0] - p[D0,S0,K0] - p[D1,S0,K0] - p[D2,S0,K0] - p[D3,S0,K0]
   - p[D4,S0,K0] + p[S0,T0,K0] + p[S0,T1,K0] + p[S0,T2,K0] + p[S0,T3,K0]
   + p[S0,T4,K0] + p[S0,D0,K0] + p[S0,D1,K0] + p[S0,D2,K0] + p[S0,D3,K0]
   + p[S0,D4,K0] + p[S0,E0,K0] - p[E0,S0,K0] = 0
 c11[K1]: - x[T0,T1,K1] - x[T0,T2,K1] - x[T0,T3,K1] - x[T0,T4,K1]
   - x[T0,D0,K1] - x[T0,D1,K1] - x[T0,D2,K1] - x[T0,D3,K1] - x[T0,D4,K1]
   - x[T0,S0,K1] - x[T0,E0,K1] - x[T1,T0,K1] - x[T1,T2,K1] - x[T1,T3,K1]
   - x[T1,T4,K1] - x[T1,D0,K1] - x[T1,D1,K1] - x[T1,D2,K1] - x[T1,D3,K1]
   - x[T1,D4,K1] - x[T1,S0,K1] - x[T1,E0,K1] - x[T2,T0,K1] - x[T2,T1,K1]
   - x[T2,T3,K1] - x[T2,T4,K1] - x[T2,D0,K1] - x[T2,D1,K1] - x[T2,D2,K1]
   - x[T2,D3,K1] - x[T2,D4,K1] - x[T2,S0,K1] - x[T2,E0,K1] - x[T3,T0,K1]
   - x[T3,T1,K1] - x[T3,T2,K1] - x[T3,T4,K1] - x[T3,D0,K1] - x[T3,D1,K1]
   - x[T3,D2,K1] - x[T3,D3,K1] - x[T3,D4,K1] - x[T3,S0,K1] - x[T3,E0,K1]
   - x[T4,T0,K1] - x[T4,T1,K1] - x[T4,T2,K1] - x[T4,T3,K1] - x[T4,D0,K1]
   - x[T4,D1,K1] - x[T4,D2,K1] - x[T4,D3,K1] - x[T4,D4,K1] - x[T4,S0,K1]
   - x[T4,E0,K1] - p[T0,S0,K1] - p[T1,S0,K1] - p[T2,S0,K1] - p[T3,S0,K1]
   - p[T4,S0,K1] - p[D0,S0,K1] - p[D1,S0,K1] - p[D2,S0,K1] - p[D3,S0,K1]
   - p[D4,S0,K1] + p[S0,T0,K1] + p[S0,T1,K1] + p[S0,T2,K1] + p[S0,T3,K1]
   + p[S0,T4,K1] + p[S0,D0,K1] + p[S0,D1,K1] + p[S0,D2,K1] + p[S0,D3,K1]
   + p[S0,D4,K1] + p[S0,E0,K1] - p[E0,S0,K1] = 0
 c11[K2]: - x[T0,T1,K2] - x[T0,T2,K2] - x[T0,T3,K2] - x[T0,T4,K2]
   - x[T0,D0,K2] - x[T0,D1,K2] - x[T0,D2,K2] - x[T0,D3,K2] - x[T0,D4,K2]
   - x[T0,S0,K2] - x[T0,E0,K2] - x[T1,T0,K2] - x[T1,T2,K2] - x[T1,T3,K2]
   - x[T1,T4,K2] - x[T1,D0,K2] - x[T1,D1,K2] - x[T1,D2,K2] - x[T1,D3,K2]
   - x[T1,D4,K2] - x[T1,S0,K2] - x[T1,E0,K2] - x[T2,T0,K2] - x[T2,T1,K2]
   - x[T2,T3,K2] - x[T2,T4,K2] - x[T2,D0,K2] - x[T2,D1,K2] - x[T2,D2,K2]
   - x[T2,D3,K2] - x[T2,D4,K2] - x[T2,S0,K2] - x[T2,E0,K2] - x[T3,T0,K2]
   - x[T3,T1,K2] - x[T3,T2,K2] - x[T3,T4,K2] - x[T3,D0,K2] - x[T3,D1,K2]
   - x[T3,D2,K2] - x[T3,D3,K2] - x[T3,D4,K2] - x[T3,S0,K2] - x[T3,E0,K2]
   - x[T4,T0,K2] - x[T4,T1,K2] - x[T4,T2,K2] - x[T4,T3,K2] - x[T4,D0,K2]
   - x[T4,D1,K2] - x[T4,D2,K2] - x[T4,D3,K2] - x[T4,D4,K2] - x[T4,S0,K2]
   - x[T4,E0,K2] - p[T0,S0,K2] - p[T1,S0,K2] - p[T2,S0,K2] - p[T3,S0,K2]
   - p[T4,S0,K2] - p[D0,S0,K2] - p[D1,S0,K2] - p[D2,S0,K2] - p[D3,S0,K2]
   - p[D4,S0,K2] + p[S0,T0,K2] + p[S0,T1,K2] + p[S0,T2,K2] + p[S0,T3,K2]
   + p[S0,T4,K2] + p[S0,D0,K2] + p[S0,D1,K2] + p[S0,D2,K2] + p[S0,D3,K2]
   + p[S0,D4,K2] + p[S0,E0,K2] - p[E0,S0,K2] = 0
 c12[T0,K0]: - x[T0,T1,K0] - x[T0,T2,K0] - x[T0,T3,K0] - x[T0,T4,K0]
   - x[T0,D0,K0] - x[T0,D1,K0] - x[T0,D2,K0] - x[T0,D3,K0] - x[T0,D4,K0]
   - x[T0,S0,K0] - x[T0,E0,K0] - p[T0,T1,K0] - p[T0,T2,K0] - p[T0,T3,K0]
   - p[T0,T4,K0] - p[T0,D0,K0] - p[T0,D1,K0] - p[T0,D2,K0] - p[T0,D3,K0]
   - p[T0,D4,K0] - p[T0,S0,K0] - p[T0,E0,K0] + p[T1,T0,K0] + p[T2,T0,K0]
   + p[T3,T0,K0] + p[T4,T0,K0] + p[D0,T0,K0] + p[D1,T0,K0] + p[D2,T0,K0]
   + p[D3,T0,K0] + p[D4,T0,K0] + p[S0,T0,K0] + p[E0,T0,K0] = 0
 c12[T0,K1]: - x[T0,T1,K1] - x[T0,T2,K1] - x[T0,T3,K1] - x[T0,T4,K1]
   - x[T0,D0,K1] - x[T0,D1,K1] - x[T0,D2,K1] - x[T0,D3,K1] - x[T0,D4,K1]
   - x[T0,S0,K1] - x[T0,E0,K1] - p[T0,T1,K1] - p[T0,T2,K1] - p[T0,T3,K1]
   - p[T0,T4,K1] - p[T0,D0,K1] - p[T0,D1,K1] - p[T0,D2,K1] - p[T0,D3,K1]
   - p[T0,D4,K1] - p[T0,S0,K1] - p[T0,E0,K1] + p[T1,T0,K1] + p[T2,T0,K1]
   + p[T3,T0,K1] + p[T4,T0,K1] + p[D0,T0,K1] + p[D1,T0,K1] + p[D2,T0,K1]
   + p[D3,T0,K1] + p[D4,T0,K1] + p[S0,T0,K1] + p[E0,T0,K1] = 0
 c12[T0,K2]: - x[T0,T1,K2] - x[T0,T2,K2] - x[T0,T3,K2] - x[T0,T4,K2]
   - x[T0,D0,K2] - x[T0,D1,K2] - x[T0,D2,K2] - x[T0,D3,K2] - x[T0,D4,K2]
   - x[T0,S0,K2] - x[T0,E0,K2] - p[T0,T1,K2] - p[T0,T2,K2] - p[T0,T3,K2]
   - p[T0,T4,K2] - p[T0,D0,K2] - p[T0,D1,K2] - p[T0,D2,K2] - p[T0,D3,K2]
   - p[T0,D4,K2] - p[T0,S0,K2] - p[T0,E0,K2] + p[T1,T0,K2] + p[T2,T0,K2]
   + p[T3,T0,K2] + p[T4,T0,K2] + p[D0,T0,K2] + p[D1,T0,K2] + p[D2,T0,K2]
   + p[D3,T0,K2] + p[D4,T0,K2] + p[S0,T0,K2] + p[E0,T0,K2] = 0
 c12[T1,K0]: - x[T1,T0,K0] - x[T1,T2,K0] - x[T1,T3,K0] - x[T1,T4,K0]
   - x[T1,D0,K0] - x[T1,D1,K0] - x[T1,D2,K0] - x[T1,D3,K0] - x[T1,D4,K0]
   - x[T1,S0,K0] - x[T1,E0,K0] + p[T0,T1,K0] - p[T1,T0,K0] - p[T1,T2,K0]
   - p[T1,T3,K0] - p[T1,T4,K0] - p[T1,D0,K0] - p[T1,D1,K0] - p[T1,D2,K0]
   - p[T1,D3,K0] - p[T1,D4,K0] - p[T1,S0,K0] - p[T1,E0,K0] + p[T2,T1,K0]
   + p[T3,T1,K0] + p[T4,T1,K0] + p[D0,T1,K0] + p[D1,T1,K0] + p[D2,T1,K0]
   + p[D3,T1,K0] + p[D4,T1,K0] + p[S0,T1,K0] + p[E0,T1,K0] = 0
 c12[T1,K1]: - x[T1,T0,K1] - x[T1,T2,K1] - x[T1,T3,K1] - x[T1,T4,K1]
   - x[T1,D0,K1] - x[T1,D1,K1] - x[T1,D2,K1] - x[T1,D3,K1] - x[T1,D4,K1]
   - x[T1,S0,K1] - x[T1,E0,K1] + p[T0,T1,K1] - p[T1,T0,K1] - p[T1,T2,K1]
   - p[T1,T3,K1] - p[T1,T4,K1] - p[T1,D0,K1] - p[T1,D1,K1] - p[T1,D2,K1]
   - p[T1,D3,K1] - p[T1,D4,K1] - p[T1,S0,K1] - p[T1,E0,K1] + p[T2,T1,K1]
   + p[T3,T1,K1] + p[T4,T1,K1] + p[D0,T1,K1] + p[D1,T1,K1] + p[D2,T1,K1]
   + p[D3,T1,K1] + p[D4,T1,K1] + p[S0,T1,K1] + p[E0,T1,K1] = 0
 c12[T1,K2]: - x[T1,T0,K2] - x[T1,T2,K2] - x[T1,T3,K2] - x[T1,T4,K2]
   - x[T1,D0,K2] - x[T1,D1,K2] - x[T1,D2,K2] - x[T1,D3,K2] - x[T1,D4,K2]
   - x[T1,S0,K2] - x[T1,E0,K2] + p[T0,T1,K2] - p[T1,T0,K2] - p[T1,T2,K2]
   - p[T1,T3,K2] - p[T1,T4,K2] - p[T1,D0,K2] - p[T1,D1,K2] - p[T1,D2,K2]
   - p[T1,D3,K2] - p[T1,D4,K2] - p[T1,S0,K2] - p[T1,E0,K2] + p[T2,T1,K2]
   + p[T3,T1,K2] + p[T4,T1,K2] + p[D0,T1,K2] + p[D1,T1,K2] + p[D2,T1,K2]
   + p[D3,T1,K2] + p[D4,T1,K2] + p[S0,T1,K2] + p[E0,T1,K2] = 0
 c12[T2,K0]: - x[T2,T0,K0] - x[T2,T1,K0] - x[T2,T3,K0] - x[T2,T4,K0]
   - x[T2,D0,K0] - x[T2,D1,K0] - x[T2,D2,K0] - x[T2,D3,K0] - x[T2,D4,K0]
   - x[T2,S0,K0] - x[T2,E0,K0] + p[T0,T2,K0] + p[T1,T2,K0] - p[T2,T0,K0]
   - p[T2,T1,K0] - p[T2,T3,K0] - p[T2,T4,K0] - p[T2,D0,K0] - p[T2,D1,K0]
   - p[T2,D2,K0] - p[T2,D3,K0] - p[T2,D4,K0] - p[T2,S0,K0] - p[T2,E0,K0]
   + p[T3,T2,K0] + p[T4,T2,K0] + p[D0,T2,K0] + p[D1,T2,K0] + p[D2,T2,K0]
   + p[D3,T2,K0] + p[D4,T2,K0] + p[S0,T2,K0] + p[E0,T2,K0] = 0
 c12[T2,K1]: - x[T2,T0,K1] - x[T2,T1,K1] - x[T2,T3,K1] - x[T2,T4,K1]
   - x[T2,D0,K1] - x[T2,D1,K1] - x[T2,D2,K1] - x[T2,D3,K1] - x[T2,D4,K1]
   - x[T2,S0,K1] - x[T2,E0,K1] + p[T0,T2,K1] + p[T1,T2,K1] - p[T2,T0,K1]
   - p[T2,T1,K1] - p[T2,T3,K1] - p[T2,T4,K1] - p[T2,D0,K1] - p[T2,D1,K1]
   - p[T2,D2,K1] - p[T2,D3,K1] - p[T2,D4,K1] - p[T2,S0,K1] - p[T2,E0,K1]
   + p[T3,T2,K1] + p[T4,T2,K1] + p[D0,T2,K1] + p[D1,T2,K1] + p[D2,T2,K1]
   + p[D3,T2,K1] + p[D4,T2,K1] + p[S0,T2,K1] + p[E0,T2,K1] = 0
 c12[T2,K2]: - x[T2,T0,K2] - x[T2,T1,K2] - x[T2,T3,K2] - x[T2,T4,K2]
   - x[T2,D0,K2] - x[T2,D1,K2] - x[T2,D2,K2] - x[T2,D3,K2] - x[T2,D4,K2]
   - x[T2,S0,K2] - x[T2,E0,K2] + p[T0,T2,K2] + p[T1,T2,K2] - p[T2,T0,K2]
   - p[T2,T1,K2] - p[T2,T3,K2] - p[T2,T4,K2] - p[T2,D0,K2] - p[T2,D1,K2]
   - p[T2,D2,K2] - p[T2,D3,K2] - p[T2,D4,K2] - p[T2,S0,K2] - p[T2,E0,K2]
   + p[T3,T2,K2] + p[T4,T2,K2] + p[D0,T2,K2] + p[D1,T2,K2] + p[D2,T2,K2]
   + p[D3,T2,K2] + p[D4,T2,K2] + p[S0,T2,K2] + p[E0,T2,K2] = 0
 c12[T3,K0]: - x[T3,T0,K0] - x[T3,T1,K0] - x[T3,T2,K0] - x[T3,T4,K0]
   - x[T3,D0,K0] - x[T3,D1,K0] - x[T3,D2,K0] - x[T3,D3,K0] - x[T3,D4,K0]
   - x[T3,S0,K0] - x[T3,E0,K0] + p[T0,T3,K0] + p[T1,T3,K0] + p[T2,T3,K0]
   - p[T3,T0,K0] - p[T3,T1,K0] - p[T3,T2,K0] - p[T3,T4,K0] - p[T3,D0,K0]
   - p[T3,D1,K0] - p[T3,D2,K0] - p[T3,D3,K0] - p[T3,D4,K0] - p[T3,S0,K0]
   - p[T3,E0,K0] + p[T4,T3,K0] + p[D0,T3,K0] + p[D1,T3,K0] + p[D2,T3,K0]
   + p[D3,T3,K0] + p[D4,T3,K0] + p[S0,T3,K0] + p[E0,T3,K0] = 0
 c12[T3,K1]: - x[T3,T0,K1] - x[T3,T1,K1] - x[T3,T2,K1] - x[T3,T4,K1]
   - x[T3,D0,K1] - x[T3,D1,K1] - x[T3,D2,K1] - x[T3,D3,K1] - x[T3,D4,K1]
   - x[T3,S0,K1] - x[T3,E0,K1] + p[T0,T3,K1] + p[T1,T3,K1] + p[T2,T3,K1]
   - p[T3,T0,K1] - p[T3,T1,K1] - p[T3,T2,K1] - p[T3,T4,K1] - p[T3,D0,K1]
   - p[T3,D1,K1] - p[T3,D2,K1] - p[T3,D3,K1] - p[T3,D4,K1] - p[T3,S0,K1]
   - p[T3,E0,K1] + p[T4,T3,K1] + p[D0,T3,K1] + p[D1,T3,K1] + p[D2,T3,K1]
   + p[D3,T3,K1] + p[D4,T3,K1] + p[S0,T3,K1] + p[E0,T3,K1] = 0
 c12[T3,K2]: - x[T3,T0,K2] - x[T3,T1,K2] - x[T3,T2,K2] - x[T3,T4,K2]
   - x[T3,D0,K2] - x[T3,D1,K2] - x[T3,D2,K2] - x[T3,D3,K2] - x[T3,D4,K2]
   - x[T3,S0,K2] - x[T3,E0,K2] + p[T0,T3,K2] + p[T1,T3,K2] + p[T2,T3,K2]
   - p[T3,T0,K2] - p[T3,T1,K2] - p[T3,T2,K2] - p[T3,T4,K2] - p[T3,D0,K2]
   - p[T3,D1,K2] - p[T3,D2,K2] - p[T3,D3,K2] - p[T3,D4,K2] - p[T3,S0,K2]
   - p[T3,E0,K2] + p[T4,T3,K2] + p[D0,T3,K2] + p[D1,T3,K2] + p[D2,T3,K2]
   + p[D3,T3,K2] + p[D4,T3,K2] + p[S0,T3,K2] + p[E0,T3,K2] = 0
 c12[T4,K0]: - x[T4,T0,K0] - x[T4,T1,K0] - x[T4,T2,K0] - x[T4,T3,K0]
   - x[T4,D0,K0] - x[T4,D1,K0] - x[T4,D2,K0] - x[T4,D3,K0] - x[T4,D4,K0]
   - x[T4,S0,K0] - x[T4,E0,K0] + p[T0,T4,K0] + p[T1,T4,K0] + p[T2,T4,K0]
   + p[T3,T4,K0] - p[T4,T0,K0] - p[T4,T1,K0] - p[T4,T2,K0] - p[T4,T3,K0]
   - p[T4,D0,K0] - p[T4,D1,K0] - p[T4,D2,K0] - p[T4,D3,K0] - p[T4,D4,K0]
   - p[T4,S0,K0] - p[T4,E0,K0] + p[D0,T4,K0] + p[D1,T4,K0] + p[D2,T4,K0]
   + p[D3,T4,K0] + p[D4,T4,K0] + p[S0,T4,K0] + p[E0,T4,K0] = 0
 c12[T4,K1]: - x[T4,T0,K1] - x[T4,T1,K1] - x[T4,T2,K1] - x[T4,T3,K1]
   - x[T4,D0,K1] - x[T4,D1,K1] - x[T4,D2,K1] - x[T4,D3,K1] - x[T4,D4,K1]
   - x[T4,S0,K1] - x[T4,E0,K1] + p[T0,T4,K1] + p[T1,T4,K1] + p[T2,T4,K1]
   + p[T3,T4,K1] - p[T4,T0,K1] - p[T4,T1,K1] - p[T4,T2,K1] - p[T4,T3,K1]
   - p[T4,D0,K1] - p[T4,D1,K1] - p[T4,D2,K1] - p[T4,D3,K1] - p[T4,D4,K1]
   - p[T4,S0,K1] - p[T4,E0,K1] + p[D0,T4,K1] + p[D1,T4,K1] + p[D2,T4,K1]
   + p[D3,T4,K1] + p[D4,T4,K1] + p[S0,T4,K1] + p[E0,T4,K1] = 0
 c12[T4,K2]: - x[T4,T0,K2] - x[T4,T1,K2] - x[T4,T2,K2] - x[T4,T3,K2]
   - x[T4,D0,K2] - x[T4,D1,K2] - x[T4,D2,K2] - x[T4,D3,K2] - x[T4,D4,K2]
   - x[T4,S0,K2] - x[T4,E0,K2] + p[T0,T4,K2] + p[T1,T4,K2] + p[T2,T4,K2]
   + p[T3,T4,K2] - p[T4,T0,K2] - p[T4,T1,K2] - p[T4,T2,K2] - p[T4,T3,K2]
   - p[T4,D0,K2] - p[T4,D1,K2] - p[T4,D2,K2] - p[T4,D3,K2] - p[T4,D4,K2]
   - p[T4,S0,K2] - p[T4,E0,K2] + p[D0,T4,K2] + p[D1,T4,K2] + p[D2,T4,K2]
   + p[D3,T4,K2] + p[D4,T4,K2] + p[S0,T4,K2] + p[E0,T4,K2] = 0
 c13[D0,K0]: p[T0,D0,K0] + p[T1,D0,K0] + p[T2,D0,K0] + p[T3,D0,K0]
   + p[T4,D0,K0] - p[D0,T0,K0] - p[D0,T1,K0] - p[D0,T2,K0] - p[D0,T3,K0]
   - p[D0,T4,K0] - p[D0,D1,K0] - p[D0,D2,K0] - p[D0,D3,K0] - p[D0,D4,K0]
   - p[D0,S0,K0] - p[D0,E0,K0] + p[D1,D0,K0] + p[D2,D0,K0] + p[D3,D0,K0]
   + p[D4,D0,K0] + p[S0,D0,K0] + p[E0,D0,K0] = 0
 c13[D0,K1]: p[T0,D0,K1] + p[T1,D0,K1] + p[T2,D0,K1] + p[T3,D0,K1]
   + p[T4,D0,K1] - p[D0,T0,K1] - p[D0,T1,K1] - p[D0,T2,K1] - p[D0,T3,K1]
   - p[D0,T4,K1] - p[D0,D1,K1] - p[D0,D2,K1] - p[D0,D3,K1] - p[D0,D4,K1]
   - p[D0,S0,K1] - p[D0,E0,K1] + p[D1,D0,K1] + p[D2,D0,K1] + p[D3,D0,K1]
   + p[D4,D0,K1] + p[S0,D0,K1] + p[E0,D0,K1] = 0
 c13[D0,K2]: p[T0,D0,K2] + p[T1,D0,K2] + p[T2,D0,K2] + p[T3,D0,K2]
   + p[T4,D0,K2] - p[D0,T0,K2] - p[D0,T1,K2] - p[D0,T2,K2] - p[D0,T3,K2]
   - p[D0,T4,K2] - p[D0,D1,K2] - p[D0,D2,K2] - p[D0,D3,K2] - p[D0,D4,K2]
   - p[D0,S0,K2] - p[D0,E0,K2] + p[D1,D0,K2] + p[D2,D0,K2] + p[D3,D0,K2]
   + p[D4,D0,K2] + p[S0,D0,K2] + p[E0,D0,K2] = 0
 c13[D1,K0]: p[T0,D1,K0] + p[T1,D1,K0] + p[T2,D1,K0] + p[T3,D1,K0]
   + p[T4,D1,K0] + p[D0,D1,K0] - p[D1,T0,K0] - p[D1,T1,K0] - p[D1,T2,K0]
   - p[D1,T3,K0] - p[D1,T4,K0] - p[D1,D0,K0] - p[D1,D2,K0] - p[D1,D3,K0]
   - p[D1,D4,K0] - p[D1,S0,K0] - p[D1,E0,K0] + p[D2,D1,K0] + p[D3,D1,K0]
   + p[D4,D1,K0] + p[S0,D1,K0] + p[E0,D1,K0] = 0
 c13[D1,K1]: p[T0,D1,K1] + p[T1,D1,K1] + p[T2,D1,K1] + p[T3,D1,K1]
   + p[T4,D1,K1] + p[D0,D1,K1] - p[D1,T0,K1] - p[D1,T1,K1] - p[D1,T2,K1]
   - p[D1,T3,K1] - p[D1,T4,K1] - p[D1,D0,K1] - p[D1,D2,K1] - p[D1,D3,K1]
   - p[D1,D4,K1] - p[D1,S0,K1] - p[D1,E0,K1] + p[D2,D1,K1] + p[D3,D1,K1]
   + p[D4,D1,K1] + p[S0,D1,K1] + p[E0,D1,K1] = 0
 c13[D1,K2]: p[T0,D1,K2] + p[T1,D1,K2] + p[T2,D1,K2] + p[T3,D1,K2]
   + p[T4,D1,K2] + p[D0,D1,K2] - p[D1,T0,K2] - p[D1,T1,K2] - p[D1,T2,K2]
   - p[D1,T3,K2] - p[D1,T4,K2] - p[D1,D0,K2] - p[D1,D2,K2] - p[D1,D3,K2]
   - p[D1,D4,K2] - p[D1,S0,K2] - p[D1,E0,K2] + p[D2,D1,K2] + p[D3,D1,K2]
   + p[D4,D1,K2] + p[S0,D1,K2] + p[E0,D1,K2] = 0
 c13[D2,K0]: p[T0,D2,K0] + p[T1,D2,K0] + p[T2,D2,K0] + p[T3,D2,K0]
   + p[T4,D2,K0] + p[D0,D2,K0] + p[D1,D2,K0] - p[D2,T0,K0] - p[D2,T1,K0]
   - p[D2,T2,K0] - p[D2,T3,K0] - p[D2,T4,K0] - p[D2,D0,K0] - p[D2,D1,K0]
   - p[D2,D3,K0] - p[D2,D4,K0] - p[D2,S0,K0] - p[D2,E0,K0] + p[D3,D2,K0]
   + p[D4,D2,K0] + p[S0,D2,K0] + p[E0,D2,K0] = 0
 c13[D2,K1]: p[T0,D2,K1] + p[T1,D2,K1] + p[T2,D2,K1] + p[T3,D2,K1]
   + p[T4,D2,K1] + p[D0,D2,K1] + p[D1,D2,K1] - p[D2,T0,K1] - p[D2,T1,K1]
   - p[D2,T2,K1] - p[D2,T3,K1] - p[D2,T4,K1] - p[D2,D0,K1] - p[D2,D1,K1]
   - p[D2,D3,K1] - p[D2,D4,K1] - p[D2,S0,K1] - p[D2,E0,K1] + p[D3,D2,K1]
   + p[D4,D2,K1] + p[S0,D2,K1] + p[E0,D2,K1] = 0
 c13[D2,K2]: p[T0,D2,K2] + p[T1,D2,K2] + p[T2,D2,K2] + p[T3,D2,K2]
   + p[T4,D2,K2] + p[D0,D2,K2] + p[D1,D2,K2] - p[D2,T0,K2] - p[D2,T1,K2]
   - p[D2,T2,K2] - p[D2,T3,K2] - p[D2,T4,K2] - p[D2,D0,K2] - p[D2,D1,K2]
   - p[D2,D3,K2] - p[D2,D4,K2] - p[D2,S0,K2] - p[D2,E0,K2] + p[D3,D2,K2]
   + p[D4,D2,K2] + p[S0,D2,K2] + p[E0,D2,K2] = 0
 c13[D3,K0]: p[T0,D3,K0] + p[T1,D3,K0] + p[T2,D3,K0] + p[T3,D3,K0]
   + p[T4,D3,K0] + p[D0,D3,K0] + p[D1,D3,K0] + p[D2,D3,K0] - p[D3,T0,K0]
   - p[D3,T1,K0] - p[D3,T2,K0] - p[D3,T3,K0] - p[D3,T4,K0] - p[D3,D0,K0]
   - p[D3,D1,K0] - p[D3,D2,K0] - p[D3,D4,K0] - p[D3,S0,K0] - p[D3,E0,K0]
   + p[D4,D3,K0] + p[S0,D3,K0] + p[E0,D3,K0] = 0
 c13[D3,K1]: p[T0,D3,K1] + p[T1,D3,K1] + p[T2,D3,K1] + p[T3,D3,K1]
   + p[T4,D3,K1] + p[D0,D3,K1] + p[D1,D3,K1] + p[D2,D3,K1] - p[D3,T0,K1]
   - p[D3,T1,K1] - p[D3,T2,K1] - p[D3,T3,K1] - p[D3,T4,K1] - p[D3,D0,K1]
   - p[D3,D1,K1] - p[D3,D2,K1] - p[D3,D4,K1] - p[D3,S0,K1] - p[D3,E0,K1]
   + p[D4,D3,K1] + p[S0,D3,K1] + p[E0,D3,K1] = 0
 c13[D3,K2]: p[T0,D3,K2] + p[T1,D3,K2] + p[T2,D3,K2] + p[T3,D3,K2]
   + p[T4,D3,K2] + p[D0,D3,K2] + p[D1,D3,K2] + p[D2,D3,K2] - p[D3,T0,K2]
   - p[D3,T1,K2] - p[D3,T2,K2] - p[D3,T3,K2] - p[D3,T4,K2] - p[D3,D0,K2]
   - p[D3,D1,K2] - p[D3,D2,K2] - p[D3,D4,K2] - p[D3,S0,K2] - p[D3,E0,K2]
   + p[D4,D3,K2] + p[S0,D3,K2] + p[E0,D3,K2] = 0
 c13[D4,K0]: p[T0,D4,K0] + p[T1,D4,K0] + p[T2,D4,K0] + p[T3,D4,K0]
   + p[T4,D4,K0] + p[D0,D4,K0] + p[D1,D4,K0] + p[D2,D4,K0] + p[D3,D4,K0]
   - p[D4,T0,K0] - p[D4,T1,K0] - p[D4,T2,K0] - p[D4,T3,K0] - p[D4,T4,K0]
   - p[D4,D0,K0] - p[D4,D1,K0] - p[D4,D2,K0] - p[D4,D3,K0] - p[D4,S0,K0]
   - p[D4,E0,K0] + p[S0,D4,K0] + p[E0,D4,K0] = 0
 c13[D4,K1]: p[T0,D4,K1] + p[T1,D4,K1] + p[T2,D4,K1] + p[T3,D4,K1]
   + p[T4,D4,K1] + p[D0,D4,K1] + p[D1,D4,K1] + p[D2,D4,K1] + p[D3,D4,K1]
   - p[D4,T0,K1] - p[D4,T1,K1] - p[D4,T2,K1] - p[D4,T3,K1] - p[D4,T4,K1]
   - p[D4,D0,K1] - p[D4,D1,K1] - p[D4,D2,K1] - p[D4,D3,K1] - p[D4,S0,K1]
   - p[D4,E0,K1] + p[S0,D4,K1] + p[E0,D4,K1] = 0
 c13[D4,K2]: p[T0,D4,K2] + p[T1,D4,K2] + p[T2,D4,K2] + p[T3,D4,K2]
   + p[T4,D4,K2] + p[D0,D4,K2] + p[D1,D4,K2] + p[D2,D4,K2] + p[D3,D4,K2]
   - p[D4,T0,K2] - p[D4,T1,K2] - p[D4,T2,K2] - p[D4,T3,K2] - p[D4,T4,K2]
   - p[D4,D0,K2] - p[D4,D1,K2] - p[D4,D2,K2] - p[D4,D3,K2] - p[D4,S0,K2]
   - p[D4,E0,K2] + p[S0,D4,K2] + p[E0,D4,K2] = 0
 c14[T0,T1,K0]: - 5 x[T0,T1,K0] + p[T0,T1,K0] <= 0
 c14[T0,T1,K1]: - 5 x[T0,T1,K1] + p[T0,T1,K1] <= 0
 c14[T0,T1,K2]: - 5 x[T0,T1,K2] + p[T0,T1,K2] <= 0
 c14[T0,T2,K0]: - 5 x[T0,T2,K0] + p[T0,T2,K0] <= 0
 c14[T0,T2,K1]: - 5 x[T0,T2,K1] + p[T0,T2,K1] <= 0
 c14[T0,T2,K2]: - 5 x[T0,T2,K2] + p[T0,T2,K2] <= 0
 c14[T0,T3,K0]: - 5 x[T0,T3,K0] + p[T0,T3,K0] <= 0
 c14[T0,T3,K1]: - 5 x[T0,T3,K1] + p[T0,T3,K1] <= 0
 c14[T0,T3,K2]: - 5 x[T0,T3,K2] + p[T0,T3,K2] <= 0
 c14[T0,T4,K0]: - 5 x[T0,T4,K0] + p[T0,T4,K0] <= 0
 c14[T0,T4,K1]: - 5 x[T0,T4,K1] + p[T0,T4,K1] <= 0
 c14[T0,T4,K2]: - 5 x[T0,T4,K2] + p[T0,T4,K2] <= 0
 c14[T0,D0,K0]: - 5 x[T0,D0,K0] + p[T0,D0,K0] <= 0
 c14[T0,D0,K1]: - 5 x[T0,D0,K1] + p[T0,D0,K1] <= 0
 c14[T0,D0,K2]: - 5 x[T0,D0,K2] + p[T0,D0,K2] <= 0
 c14[T0,D1,K0]: - 5 x[T0,D1,K0] + p[T0,D1,K0] <= 0
 c14[T0,D1,K1]: - 5 x[T0,D1,K1] + p[T0,D1,K1] <= 0
 c14[T0,D1,K2]: - 5 x[T0,D1,K2] + p[T0,D1,K2] <= 0
 c14[T0,D2,K0]: - 5 x[T0,D2,K0] + p[T0,D2,K0] <= 0
 c14[T0,D2,K1]: - 5 x[T0,D2,K1] + p[T0,D2,K1] <= 0
 c14[T0,D2,K2]: - 5 x[T0,D2,K2] + p[T0,D2,K2] <= 0
 c14[T0,D3,K0]: - 5 x[T0,D3,K0] + p[T0,D3,K0] <= 0
 c14[T0,D3,K1]: - 5 x[T0,D3,K1] + p[T0,D3,K1] <= 0
 c14[T0,D3,K2]: - 5 x[T0,D3,K2] + p[T0,D3,K2] <= 0
 c14[T0,D4,K0]: - 5 x[T0,D4,K0] + p[T0,D4,K0] <= 0
 c14[T0,D4,K1]: - 5 x[T0,D4,K1] + p[T0,D4,K1] <= 0
 c14[T0,D4,K2]: - 5 x[T0,D4,K2] + p[T0,D4,K2] <= 0
 c14[T0,S0,K0]: - 5 x[T0,S0,K0] + p[T0,S0,K0] <= 0
 c14[T0,S0,K1]: - 5 x[T0,S0,K1] + p[T0,S0,K1] <= 0
 c14[T0,S0,K2]: - 5 x[T0,S0,K2] + p[T0,S0,K2] <= 0
 c14[T0,E0,K0]: - 5 x[T0,E0,K0] + p[T0,E0,K0] <= 0
 c14[T0,E0,K1]: - 5 x[T0,E0,K1] + p[T0,E0,K1] <= 0
 c14[T0,E0,K2]: - 5 x[T0,E0,K2] + p[T0,E0,K2] <= 0
 c14[T1,T0,K0]: - 5 x[T1,T0,K0] + p[T1,T0,K0] <= 0
 c14[T1,T0,K1]: - 5 x[T1,T0,K1] + p[T1,T0,K1] <= 0
 c14[T1,T0,K2]: - 5 x[T1,T0,K2] + p[T1,T0,K2] <= 0
 c14[T1,T2,K0]: - 5 x[T1,T2,K0] + p[T1,T2,K0] <= 0
 c14[T1,T2,K1]: - 5 x[T1,T2,K1] + p[T1,T2,K1] <= 0
 c14[T1,T2,K2]: - 5 x[T1,T2,K2] + p[T1,T2,K2] <= 0
 c14[T1,T3,K0]: - 5 x[T1,T3,K0] + p[T1,T3,K0] <= 0
 c14[T1,T3,K1]: - 5 x[T1,T3,K1] + p[T1,T3,K1] <= 0
 c14[T1,T3,K2]: - 5 x[T1,T3,K2] + p[T1,T3,K2] <= 0
 c14[T1,T4,K0]: - 5 x[T1,T4,K0] + p[T1,T4,K0] <= 0
 c14[T1,T4,K1]: - 5 x[T1,T4,K1] + p[T1,T4,K1] <= 0
 c14[T1,T4,K2]: - 5 x[T1,T4,K2] + p[T1,T4,K2] <= 0
 c14[T1,D0,K0]: - 5 x[T1,D0,K0] + p[T1,D0,K0] <= 0
 c14[T1,D0,K1]: - 5 x[T1,D0,K1] + p[T1,D0,K1] <= 0
 c14[T1,D0,K2]: - 5 x[T1,D0,K2] + p[T1,D0,K2] <= 0
 c14[T1,D1,K0]: - 5 x[T1,D1,K0] + p[T1,D1,K0] <= 0
 c14[T1,D1,K1]: - 5 x[T1,D1,K1] + p[T1,D1,K1] <= 0
 c14[T1,D1,K2]: - 5 x[T1,D1,K2] + p[T1,D1,K2] <= 0
 c14[T1,D2,K0]: - 5 x[T1,D2,K0] + p[T1,D2,K0] <= 0
 c14[T1,D2,K1]: - 5 x[T1,D2,K1] + p[T1,D2,K1] <= 0
 c14[T1,D2,K2]: - 5 x[T1,D2,K2] + p[T1,D2,K2] <= 0
 c14[T1,D3,K0]: - 5 x[T1,D3,K0] + p[T1,D3,K0] <= 0
 c14[T1,D3,K1]: - 5 x[T1,D3,K1] + p[T1,D3,K1] <= 0
 c14[T1,D3,K2]: - 5 x[T1,D3,K2] + p[T1,D3,K2] <= 0
 c14[T1,D4,K0]: - 5 x[T1,D4,K0] + p[T1,D4,K0] <= 0
 c14[T1,D4,K1]: - 5 x[T1,D4,K1] + p[T1,D4,K1] <= 0
 c14[T1,D4,K2]: - 5 x[T1,D4,K2] + p[T1,D4,K2] <= 0
 c14[T1,S0,K0]: - 5 x[T1,S0,K0] + p[T1,S0,K0] <= 0
 c14[T1,S0,K1]: - 5 x[T1,S0,K1] + p[T1,S0,K1] <= 0
 c14[T1,S0,K2]: - 5 x[T1,S0,K2] + p[T1,S0,K2] <= 0
 c14[T1,E0,K0]: - 5 x[T1,E0,K0] + p[T1,E0,K0] <= 0
 c14[T1,E0,K1]: - 5 x[T1,E0,K1] + p[T1,E0,K1] <= 0
 c14[T1,E0,K2]: - 5 x[T1,E0,K2] + p[T1,E0,K2] <= 0
 c14[T2,T0,K0]: - 5 x[T2,T0,K0] + p[T2,T0,K0] <= 0
 c14[T2,T0,K1]: - 5 x[T2,T0,K1] + p[T2,T0,K1] <= 0
 c14[T2,T0,K2]: - 5 x[T2,T0,K2] + p[T2,T0,K2] <= 0
 c14[T2,T1,K0]: - 5 x[T2,T1,K0] + p[T2,T1,K0] <= 0
 c14[T2,T1,K1]: - 5 x[T2,T1,K1] + p[T2,T1,K1] <= 0
 c14[T2,T1,K2]: - 5 x[T2,T1,K2] + p[T2,T1,K2] <= 0
 c14[T2,T3,K0]: - 5 x[T2,T3,K0] + p[T2,T3,K0] <= 0
 c14[T2,T3,K1]: - 5 x[T2,T3,K1] + p[T2,T3,K1] <= 0
 c14[T2,T3,K2]: - 5 x[T2,T3,K2] + p[T2,T3,K2] <= 0
 c14[T2,T4,K0]: - 5 x[T2,T4,K0] + p[T2,T4,K0] <= 0
 c14[T2,T4,K1]: - 5 x[T2,T4,K1] + p[T2,T4,K1] <= 0
 c14[T2,T4,K2]: - 5 x[T2,T4,K2] + p[T2,T4,K2] <= 0
 c14[T2,D0,K0]: - 5 x[T2,D0,K0] + p[T2,D0,K0] <= 0
 c14[T2,D0,K1]: - 5 x[T2,D0,K1] + p[T2,D0,K1] <= 0
 c14[T2,D0,K2]: - 5 x[T2,D0,K2] + p[T2,D0,K2] <= 0
 c14[T2,D1,K0]: - 5 x[T2,D1,K0] + p[T2,D1,K0] <= 0
 c14[T2,D1,K1]: - 5 x[T2,D1,K1] + p[T2,D1,K1] <= 0
 c14[T2,D1,K2]: - 5 x[T2,D1,K2] + p[T2,D1,K2] <= 0
 c14[T2,D2,K0]: - 5 x[T2,D2,K0] + p[T2,D2,K0] <= 0
 c14[T2,D2,K1]: - 5 x[T2,D2,K1] + p[T2,D2,K1] <= 0
 c14[T2,D2,K2]: - 5 x[T2,D2,K2] + p[T2,D2,K2] <= 0
 c14[T2,D3,K0]: - 5 x[T2,D3,K0] + p[T2,D3,K0] <= 0
 c14[T2,D3,K1]: - 5 x[T2,D3,K1] + p[T2,D3,K1] <= 0
 c14[T2,D3,K2]: - 5 x[T2,D3,K2] + p[T2,D3,K2] <= 0
 c14[T2,D4,K0]: - 5 x[T2,D4,K0] + p[T2,D4,K0] <= 0
 c14[T2,D4,K1]: - 5 x[T2,D4,K1] + p[T2,D4,K1] <= 0
 c14[T2,D4,K2]: - 5 x[T2,D4,K2] + p[T2,D4,K2] <= 0
 c14[T2,S0,K0]: - 5 x[T2,S0,K0] + p[T2,S0,K0] <= 0
 c14[T2,S0,K1]: - 5 x[T2,S0,K1] + p[T2,S0,K1] <= 0
 c14[T2,S0,K2]: - 5 x[T2,S0,K2] + p[T2,S0,K2] <= 0
 c14[T2,E0,K0]: - 5 x[T2,E0,K0] + p[T2,E0,K0] <= 0
 c14[T2,E0,K1]: - 5 x[T2,E0,K1] + p[T2,E0,K1] <= 0
 c14[T2,E0,K2]: - 5 x[T2,E0,K2] + p[T2,E0,K2] <= 0
 c14[T3,T0,K0]: - 5 x[T3,T0,K0] + p[T3,T0,K0] <= 0
 c14[T3,T0,K1]: - 5 x[T3,T0,K1] + p[T3,T0,K1] <= 0
 c14[T3,T0,K2]: - 5 x[T3,T0,K2] + p[T3,T0,K2] <= 0
 c14[T3,T1,K0]: - 5 x[T3,T1,K0] + p[T3,T1,K0] <= 0
 c14[T3,T1,K1]: - 5 x[T3,T1,K1] + p[T3,T1,K1] <= 0
 c14[T3,T1,K2]: - 5 x[T3,T1,K2] + p[T3,T1,K2] <= 0
 c14[T3,T2,K0]: - 5 x[T3,T2,K0] + p[T3,T2,K0] <= 0
 c14[T3,T2,K1]: - 5 x[T3,T2,K1] + p[T3,T2,K1] <= 0
 c14[T3,T2,K2]: - 5 x[T3,T2,K2] + p[T3,T2,K2] <= 0
 c14[T3,T4,K0]: - 5 x[T3,T4,K0] + p[T3,T4,K0] <= 0
 c14[T3,T4,K1]: - 5 x[T3,T4,K1] + p[T3,T4,K1] <= 0
 c14[T3,T4,K2]: - 5 x[T3,T4,K2] + p[T3,T4,K2] <= 0
 c14[T3,D0,K0]: - 5 x[T3,D0,K0] + p[T3,D0,K0] <= 0
 c14[T3,D0,K1]: - 5 x[T3,D0,K1] + p[T3,D0,K1] <= 0
 c14[T3,D0,K2]: - 5 x[T3,D0,K2] + p[T3,D0,K2] <= 0
 c14[T3,D1,K0]: - 5 x[T3,D1,K0] + p[T3,D1,K0] <= 0
 c14[T3,D1,K1]: - 5 x[T3,D1,K1] + p[T3,D1,K1] <= 0
 c14[T3,D1,K2]: - 5 x[T3,D1,K2] + p[T3,D1,K2] <= 0
 c14[T3,D2,K0]: - 5 x[T3,D2,K0] + p[T3,D2,K0] <= 0
 c14[T3,D2,K1]: - 5 x[T3,D2,K1] + p[T3,D2,K1] <= 0
 c14[T3,D2,K2]: - 5 x[T3,D2,K2] + p[T3,D2,K2] <= 0
 c14[T3,D3,K0]: - 5 x[T3,D3,K0] + p[T3,D3,K0] <= 0
 c14[T3,D3,K1]: - 5 x[T3,D3,K1] + p[T3,D3,K1] <= 0
 c14[T3,D3,K2]: - 5 x[T3,D3,K2] + p[T3,D3,K2] <= 0
 c14[T3,D4,K0]: - 5 x[T3,D4,K0] + p[T3,D4,K0] <= 0
 c14[T3,D4,K1]: - 5 x[T3,D4,K1] + p[T3,D4,K1] <= 0
 c14[T3,D4,K2]: - 5 x[T3,D4,K2] + p[T3,D4,K2] <= 0
 c14[T3,S0,K0]: - 5 x[T3,S0,K0] + p[T3,S0,K0] <= 0
 c14[T3,S0,K1]: - 5 x[T3,S0,K1] + p[T3,S0,K1] <= 0
 c14[T3,S0,K2]: - 5 x[T3,S0,K2] + p[T3,S0,K2] <= 0
 c14[T3,E0,K0]: - 5 x[T3,E0,K0] + p[T3,E0,K0] <= 0
 c14[T3,E0,K1]: - 5 x[T3,E0,K1] + p[T3,E0,K1] <= 0
 c14[T3,E0,K2]: - 5 x[T3,E0,K2] + p[T3,E0,K2] <= 0
 c14[T4,T0,K0]: - 5 x[T4,T0,K0] + p[T4,T0,K0] <= 0
 c14[T4,T0,K1]: - 5 x[T4,T0,K1] + p[T4,T0,K1] <= 0
 c14[T4,T0,K2]: - 5 x[T4,T0,K2] + p[T4,T0,K2] <= 0
 c14[T4,T1,K0]: - 5 x[T4,T1,K0] + p[T4,T1,K0] <= 0
 c14[T4,T1,K1]: - 5 x[T4,T1,K1] + p[T4,T1,K1] <= 0
 c14[T4,T1,K2]: - 5 x[T4,T1,K2] + p[T4,T1,K2] <= 0
 c14[T4,T2,K0]: - 5 x[T4,T2,K0] + p[T4,T2,K0] <= 0
 c14[T4,T2,K1]: - 5 x[T4,T2,K1] + p[T4,T2,K1] <= 0
 c14[T4,T2,K2]: - 5 x[T4,T2,K2] + p[T4,T2,K2] <= 0
 c14[T4,T3,K0]: - 5 x[T4,T3,K0] + p[T4,T3,K0] <= 0
 c14[T4,T3,K1]: - 5 x[T4,T3,K1] + p[T4,T3,K1] <= 0
 c14[T4,T3,K2]: - 5 x[T4,T3,K2] + p[T4,T3,K2] <= 0
 c14[T4,D0,K0]: - 5 x[T4,D0,K0] + p[T4,D0,K0] <= 0
 c14[T4,D0,K1]: - 5 x[T4,D0,K1] + p[T4,D0,K1] <= 0
 c14[T4,D0,K2]: - 5 x[T4,D0,K2] + p[T4,D0,K2] <= 0
 c14[T4,D1,K0]: - 5 x[T4,D1,K0] + p[T4,D1,K0] <= 0
 c14[T4,D1,K1]: - 5 x[T4,D1,K1] + p[T4,D1,K1] <= 0
 c14[T4,D1,K2]: - 5 x[T4,D1,K2] + p[T4,D1,K2] <= 0
 c14[T4,D2,K0]: - 5 x[T4,D2,K0] + p[T4,D2,K0] <= 0
 c14[T4,D2,K1]: - 5 x[T4,D2,K1] + p[T4,D2,K1] <= 0
 c14[T4,D2,K2]: - 5 x[T4,D2,K2] + p[T4,D2,K2] <= 0
 c14[T4,D3,K0]: - 5 x[T4,D3,K0] + p[T4,D3,K0] <= 0
 c14[T4,D3,K1]: - 5 x[T4,D3,K1] + p[T4,D3,K1] <= 0
 c14[T4,D3,K2]: - 5 x[T4,D3,K2] + p[T4,D3,K2] <= 0
 c14[T4,D4,K0]: - 5 x[T4,D4,K0] + p[T4,D4,K0] <= 0
 c14[T4,D4,K1]: - 5 x[T4,D4,K1] + p[T4,D4,K1] <= 0
 c14[T4,D4,K2]: - 5 x[T4,D4,K2] + p[T4,D4,K2] <= 0
 c14[T4,S0,K0]: - 5 x[T4,S0,K0] + p[T4,S0,K0] <= 0
 c14[T4,S0,K1]: - 5 x[T4,S0,K1] + p[T4,S0,K1] <= 0
 c14[T4,S0,K2]: - 5 x[T4,S0,K2] + p[T4,S0,K2] <= 0
 c14[T4,E0,K0]: - 5 x[T4,E0,K0] + p[T4,E0,K0] <= 0
 c14[T4,E0,K1]: - 5 x[T4,E0,K1] + p[T4,E0,K1] <= 0
 c14[T4,E0,K2]: - 5 x[T4,E0,K2] + p[T4,E0,K2] <= 0
 c14[D0,T0,K0]: - 5 x[D0,T0,K0] + p[D0,T0,K0] <= 0
 c14[D0,T0,K1]: - 5 x[D0,T0,K1] + p[D0,T0,K1] <= 0
 c14[D0,T0,K2]: - 5 x[D0,T0,K2] + p[D0,T0,K2] <= 0
 c14[D0,T1,K0]: - 5 x[D0,T1,K0] + p[D0,T1,K0] <= 0
 c14[D0,T1,K1]: - 5 x[D0,T1,K1] + p[D0,T1,K1] <= 0
 c14[D0,T1,K2]: - 5 x[D0,T1,K2] + p[D0,T1,K2] <= 0
 c14[D0,T2,K0]: - 5 x[D0,T2,K0] + p[D0,T2,K0] <= 0
 c14[D0,T2,K1]: - 5 x[D0,T2,K1] + p[D0,T2,K1] <= 0
 c14[D0,T2,K2]: - 5 x[D0,T2,K2] + p[D0,T2,K2] <= 0
 c14[D0,T3,K0]: - 5 x[D0,T3,K0] + p[D0,T3,K0] <= 0
 c14[D0,T3,K1]: - 5 x[D0,T3,K1] + p[D0,T3,K1] <= 0
 c14[D0,T3,K2]: - 5 x[D0,T3,K2] + p[D0,T3,K2] <= 0
 c14[D0,T4,K0]: - 5 x[D0,T4,K0] + p[D0,T4,K0] <= 0
 c14[D0,T4,K1]: - 5 x[D0,T4,K1] + p[D0,T4,K1] <= 0
 c14[D0,T4,K2]: - 5 x[D0,T4,K2] + p[D0,T4,K2] <= 0
 c14[D0,D1,K0]: - 5 x[D0,D1,K0] + p[D0,D1,K0] <= 0
 c14[D0,D1,K1]: - 5 x[D0,D1,K1] + p[D0,D1,K1] <= 0
 c14[D0,D1,K2]: - 5 x[D0,D1,K2] + p[D0,D1,K2] <= 0
 c14[D0,D2,K0]: - 5 x[D0,D2,K0] + p[D0,D2,K0] <= 0
 c14[D0,D2,K1]: - 5 x[D0,D2,K1] + p[D0,D2,K1] <= 0
 c14[D0,D2,K2]: - 5 x[D0,D2,K2] + p[D0,D2,K2] <= 0
 c14[D0,D3,K0]: - 5 x[D0,D3,K0] + p[D0,D3,K0] <= 0
 c14[D0,D3,K1]: - 5 x[D0,D3,K1] + p[D0,D3,K1] <= 0
 c14[D0,D3,K2]: - 5 x[D0,D3,K2] + p[D0,D3,K2] <= 0
 c14[D0,D4,K0]: - 5 x[D0,D4,K0] + p[D0,D4,K0] <= 0
 c14[D0,D4,K1]: - 5 x[D0,D4,K1] + p[D0,D4,K1] <= 0
 c14[D0,D4,K2]: - 5 x[D0,D4,K2] + p[D0,D4,K2] <= 0
 c14[D0,S0,K0]: - 5 x[D0,S0,K0] + p[D0,S0,K0] <= 0
 c14[D0,S0,K1]: - 5 x[D0,S0,K1] + p[D0,S0,K1] <= 0
 c14[D0,S0,K2]: - 5 x[D0,S0,K2] + p[D0,S0,K2] <= 0
 c14[D0,E0,K0]: - 5 x[D0,E0,K0] + p[D0,E0,K0] <= 0
 c14[D0,E0,K1]: - 5 x[D0,E0,K1] + p[D0,E0,K1] <= 0
 c14[D0,E0,K2]: - 5 x[D0,E0,K2] + p[D0,E0,K2] <= 0
 c14[D1,T0,K0]: - 5 x[D1,T0,K0] + p[D1,T0,K0] <= 0
 c14[D1,T0,K1]: - 5 x[D1,T0,K1] + p[D1,T0,K1] <= 0
 c14[D1,T0,K2]: - 5 x[D1,T0,K2] + p[D1,T0,K2] <= 0
 c14[D1,T1,K0]: - 5 x[D1,T1,K0] + p[D1,T1,K0] <= 0
 c14[D1,T1,K1]: - 5 x[D1,T1,K1] + p[D1,T1,K1] <= 0
 c14[D1,T1,K2]: - 5 x[D1,T1,K2] + p[D1,T1,K2] <= 0
 c14[D1,T2,K0]: - 5 x[D1,T2,K0] + p[D1,T2,K0] <= 0
 c14[D1,T2,K1]: - 5 x[D1,T2,K1] + p[D1,T2,K1] <= 0
 c14[D1,T2,K2]: - 5 x[D1,T2,K2] + p[D1,T2,K2] <= 0
 c14[D1,T3,K0]: - 5 x[D1,T3,K0] + p[D1,T3,K0] <= 0
 c14[D1,T3,K1]: - 5 x[D1,T3,K1] + p[D1,T3,K1] <= 0
 c14[D1,T3,K2]: - 5 x[D1,T3,K2] + p[D1,T3,K2] <= 0
 c14[D1,T4,K0]: - 5 x[D1,T4,K0] + p[D1,T4,K0] <= 0
 c14[D1,T4,K1]: - 5 x[D1,T4,K1] + p[D1,T4,K1] <= 0
 c14[D1,T4,K2]: - 5 x[D1,T4,K2] + p[D1,T4,K2] <= 0
 c14[D1,D0,K0]: - 5 x[D1,D0,K0] + p[D1,D0,K0] <= 0
 c14[D1,D0,K1]: - 5 x[D1,D0,K1] + p[D1,D0,K1] <= 0
 c14[D1,D0,K2]: - 5 x[D1,D0,K2] + p[D1,D0,K2] <= 0
 c14[D1,D2,K0]: - 5 x[D1,D2,K0] + p[D1,D2,K0] <= 0
 c14[D1,D2,K1]: - 5 x[D1,D2,K1] + p[D1,D2,K1] <= 0
 c14[D1,D2,K2]: - 5 x[D1,D2,K2] + p[D1,D2,K2] <= 0
 c14[D1,D3,K0]: - 5 x[D1,D3,K0] + p[D1,D3,K0] <= 0
 c14[D1,D3,K1]: - 5 x[D1,D3,K1] + p[D1,D3,K1] <= 0
 c14[D1,D3,K2]: - 5 x[D1,D3,K2] + p[D1,D3,K2] <= 0
 c14[D1,D4,K0]: - 5 x[D1,D4,K0] + p[D1,D4,K0] <= 0
 c14[D1,D4,K1]: - 5 x[D1,D4,K1] + p[D1,D4,K1] <= 0
 c14[D1,D4,K2]: - 5 x[D1,D4,K2] + p[D1,D4,K2] <= 0
 c14[D1,S0,K0]: - 5 x[D1,S0,K0] + p[D1,S0,K0] <= 0
 c14[D1,S0,K1]: - 5 x[D1,S0,K1] + p[D1,S0,K1] <= 0
 c14[D1,S0,K2]: - 5 x[D1,S0,K2] + p[D1,S0,K2] <= 0
 c14[D1,E0,K0]: - 5 x[D1,E0,K0] + p[D1,E0,K0] <= 0
 c14[D1,E0,K1]: - 5 x[D1,E0,K1] + p[D1,E0,K1] <= 0
 c14[D1,E0,K2]: - 5 x[D1,E0,K2] + p[D1,E0,K2] <= 0
 c14[D2,T0,K0]: - 5 x[D2,T0,K0] + p[D2,T0,K0] <= 0
 c14[D2,T0,K1]: - 5 x[D2,T0,K1] + p[D2,T0,K1] <= 0
 c14[D2,T0,K2]: - 5 x[D2,T0,K2] + p[D2,T0,K2] <= 0
 c14[D2,T1,K0]: - 5 x[D2,T1,K0] + p[D2,T1,K0] <= 0
 c14[D2,T1,K1]: - 5 x[D2,T1,K1] + p[D2,T1,K1] <= 0
 c14[D2,T1,K2]: - 5 x[D2,T1,K2] + p[D2,T1,K2] <= 0
 c14[D2,T2,K0]: - 5 x[D2,T2,K0] + p[D2,T2,K0] <= 0
 c14[D2,T2,K1]: - 5 x[D2,T2,K1] + p[D2,T2,K1] <= 0
 c14[D2,T2,K2]: - 5 x[D2,T2,K2] + p[D2,T2,K2] <= 0
 c14[D2,T3,K0]: - 5 x[D2,T3,K0] + p[D2,T3,K0] <= 0
 c14[D2,T3,K1]: - 5 x[D2,T3,K1] + p[D2,T3,K1] <= 0
 c14[D2,T3,K2]: - 5 x[D2,T3,K2] + p[D2,T3,K2] <= 0
 c14[D2,T4,K0]: - 5 x[D2,T4,K0] + p[D2,T4,K0] <= 0
 c14[D2,T4,K1]: - 5 x[D2,T4,K1] + p[D2,T4,K1] <= 0
 c14[D2,T4,K2]: - 5 x[D2,T4,K2] + p[D2,T4,K2] <= 0
 c14[D2,D0,K0]: - 5 x[D2,D0,K0] + p[D2,D0,K0] <= 0
 c14[D2,D0,K1]: - 5 x[D2,D0,K1] + p[D2,D0,K1] <= 0
 c14[D2,D0,K2]: - 5 x[D2,D0,K2] + p[D2,D0,K2] <= 0
 c14[D2,D1,K0]: - 5 x[D2,D1,K0] + p[D2,D1,K0] <= 0
 c14[D2,D1,K1]: - 5 x[D2,D1,K1] + p[D2,D1,K1] <= 0
 c14[D2,D1,K2]: - 5 x[D2,D1,K2] + p[D2,D1,K2] <= 0
 c14[D2,D3,K0]: - 5 x[D2,D3,K0] + p[D2,D3,K0] <= 0
 c14[D2,D3,K1]: - 5 x[D2,D3,K1] + p[D2,D3,K1] <= 0
 c14[D2,D3,K2]: - 5 x[D2,D3,K2] + p[D2,D3,K2] <= 0
 c14[D2,D4,K0]: - 5 x[D2,D4,K0] + p[D2,D4,K0] <= 0
 c14[D2,D4,K1]: - 5 x[D2,D4,K1] + p[D2,D4,K1] <= 0
 c14[D2,D4,K2]: - 5 x[D2,D4,K2] + p[D2,D4,K2] <= 0
 c14[D2,S0,K0]: - 5 x[D2,S0,K0] + p[D2,S0,K0] <= 0
 c14[D2,S0,K1]: - 5 x[D2,S0,K1] + p[D2,S0,K1] <= 0
 c14[D2,S0,K2]: - 5 x[D2,S0,K2] + p[D2,S0,K2] <= 0
 c14[D2,E0,K0]: - 5 x[D2,E0,K0] + p[D2,E0,K0] <= 0
 c14[D2,E0,K1]: - 5 x[D2,E0,K1] + p[D2,E0,K1] <= 0
 c14[D2,E0,K2]: - 5 x[D2,E0,K2] + p[D2,E0,K2] <= 0
 c14[D3,T0,K0]: - 5 x[D3,T0,K0] + p[D3,T0,K0] <= 0
 c14[D3,T0,K1]: - 5 x[D3,T0,K1] + p[D3,T0,K1] <= 0
 c14[D3,T0,K2]: - 5 x[D3,T0,K2] + p[D3,T0,K2] <= 0
 c14[D3,T1,K0]: - 5 x[D3,T1,K0] + p[D3,T1,K0] <= 0
 c14[D3,T1,K1]: - 5 x[D3,T1,K1] + p[D3,T1,K1] <= 0
 c14[D3,T1,K2]: - 5 x[D3,T1,K2] + p[D3,T1,K2] <= 0
 c14[D3,T2,K0]: - 5 x[D3,T2,K0] + p[D3,T2,K0] <= 0
 c14[D3,T2,K1]: - 5 x[D3,T2,K1] + p[D3,T2,K1] <= 0
 c14[D3,T2,K2]: - 5 x[D3,T2,K2] + p[D3,T2,K2] <= 0
 c14[D3,T3,K0]: - 5 x[D3,T3,K0] + p[D3,T3,K0] <= 0
 c14[D3,T3,K1]: - 5 x[D3,T3,K1] + p[D3,T3,K1] <= 0
 c14[D3,T3,K2]: - 5 x[D3,T3,K2] + p[D3,T3,K2] <= 0
 c14[D3,T4,K0]: - 5 x[D3,T4,K0] + p[D3,T4,K0] <= 0
 c14[D3,T4,K1]: - 5 x[D3,T4,K1] + p[D3,T4,K1] <= 0
 c14[D3,T4,K2]: - 5 x[D3,T4,K2] + p[D3,T4,K2] <= 0
 c14[D3,D0,K0]: - 5 x[D3,D0,K0] + p[D3,D0,K0] <= 0
 c14[D3,D0,K1]: - 5 x[D3,D0,K1] + p[D3,D0,K1] <= 0
 c14[D3,D0,K2]: - 5 x[D3,D0,K2] + p[D3,D0,K2] <= 0
 c14[D3,D1,K0]: - 5 x[D3,D1,K0] + p[D3,D1,K0] <= 0
 c14[D3,D1,K1]: - 5 x[D3,D1,K1] + p[D3,D1,K1] <= 0
 c14[D3,D1,K2]: - 5 x[D3,D1,K2] + p[D3,D1,K2] <= 0
 c14[D3,D2,K0]: - 5 x[D3,D2,K0] + p[D3,D2,K0] <= 0
 c14[D3,D2,K1]: - 5 x[D3,D2,K1] + p[D3,D2,K1] <= 0
 c14[D3,D2,K2]: - 5 x[D3,D2,K2] + p[D3,D2,K2] <= 0
 c14[D3,D4,K0]: - 5 x[D3,D4,K0] + p[D3,D4,K0] <= 0
 c14[D3,D4,K1]: - 5 x[D3,D4,K1] + p[D3,D4,K1] <= 0
 c14[D3,D4,K2]: - 5 x[D3,D4,K2] + p[D3,D4,K2] <= 0
 c14[D3,S0,K0]: - 5 x[D3,S0,K0] + p[D3,S0,K0] <= 0
 c14[D3,S0,K1]: - 5 x[D3,S0,K1] + p[D3,S0,K1] <= 0
 c14[D3,S0,K2]: - 5 x[D3,S0,K2] + p[D3,S0,K2] <= 0
 c14[D3,E0,K0]: - 5 x[D3,E0,K0] + p[D3,E0,K0] <= 0
 c14[D3,E0,K1]: - 5 x[D3,E0,K1] + p[D3,E0,K1] <= 0
 c14[D3,E0,K2]: - 5 x[D3,E0,K2] + p[D3,E0,K2] <= 0
 c14[D4,T0,K0]: - 5 x[D4,T0,K0] + p[D4,T0,K0] <= 0
 c14[D4,T0,K1]: - 5 x[D4,T0,K1] + p[D4,T0,K1] <= 0
 c14[D4,T0,K2]: - 5 x[D4,T0,K2] + p[D4,T0,K2] <= 0
 c14[D4,T1,K0]: - 5 x[D4,T1,K0] + p[D4,T1,K0] <= 0
 c14[D4,T1,K1]: - 5 x[D4,T1,K1] + p[D4,T1,K1] <= 0
 c14[D4,T1,K2]: - 5 x[D4,T1,K2] + p[D4,T1,K2] <= 0
 c14[D4,T2,K0]: - 5 x[D4,T2,K0] + p[D4,T2,K0] <= 0
 c14[D4,T2,K1]: - 5 x[D4,T2,K1] + p[D4,T2,K1] <= 0
 c14[D4,T2,K2]: - 5 x[D4,T2,K2] + p[D4,T2,K2] <= 0
 c14[D4,T3,K0]: - 5 x[D4,T3,K0] + p[D4,T3,K0] <= 0
 c14[D4,T3,K1]: - 5 x[D4,T3,K1] + p[D4,T3,K1] <= 0
 c14[D4,T3,K2]: - 5 x[D4,T3,K2] + p[D4,T3,K2] <= 0
 c14[D4,T4,K0]: - 5 x[D4,T4,K0] + p[D4,T4,K0] <= 0
 c14[D4,T4,K1]: - 5 x[D4,T4,K1] + p[D4,T4,K1] <= 0
 c14[D4,T4,K2]: - 5 x[D4,T4,K2] + p[D4,T4,K2] <= 0
 c14[D4,D0,K0]: - 5 x[D4,D0,K0] + p[D4,D0,K0] <= 0
 c14[D4,D0,K1]: - 5 x[D4,D0,K1] + p[D4,D0,K1] <= 0
 c14[D4,D0,K2]: - 5 x[D4,D0,K2] + p[D4,D0,K2] <= 0
 c14[D4,D1,K0]: - 5 x[D4,D1,K0] + p[D4,D1,K0] <= 0
 c14[D4,D1,K1]: - 5 x[D4,D1,K1] + p[D4,D1,K1] <= 0
 c14[D4,D1,K2]: - 5 x[D4,D1,K2] + p[D4,D1,K2] <= 0
 c14[D4,D2,K0]: - 5 x[D4,D2,K0] + p[D4,D2,K0] <= 0
 c14[D4,D2,K1]: - 5 x[D4,D2,K1] + p[D4,D2,K1] <= 0
 c14[D4,D2,K2]: - 5 x[D4,D2,K2] + p[D4,D2,K2] <= 0
 c14[D4,D3,K0]: - 5 x[D4,D3,K0] + p[D4,D3,K0] <= 0
 c14[D4,D3,K1]: - 5 x[D4,D3,K1] + p[D4,D3,K1] <= 0
 c14[D4,D3,K2]: - 5 x[D4,D3,K2] + p[D4,D3,K2] <= 0
 c14[D4,S0,K0]: - 5 x[D4,S0,K0] + p[D4,S0,K0] <= 0
 c14[D4,S0,K1]: - 5 x[D4,S0,K1] + p[D4,S0,K1] <= 0
 c14[D4,S0,K2]: - 5 x[D4,S0,K2] + p[D4,S0,K2] <= 0
 c14[D4,E0,K0]: - 5 x[D4,E0,K0] + p[D4,E0,K0] <= 0
 c14[D4,E0,K1]: - 5 x[D4,E0,K1] + p[D4,E0,K1] <= 0
 c14[D4,E0,K2]: - 5 x[D4,E0,K2] + p[D4,E0,K2] <= 0
 c14[S0,T0,K0]: - 5 x[S0,T0,K0] + p[S0,T0,K0] <= 0
 c14[S0,T0,K1]: - 5 x[S0,T0,K1] + p[S0,T0,K1] <= 0
 c14[S0,T0,K2]: - 5 x[S0,T0,K2] + p[S0,T0,K2] <= 0
 c14[S0,T1,K0]: - 5 x[S0,T1,K0] + p[S0,T1,K0] <= 0
 c14[S0,T1,K1]: - 5 x[S0,T1,K1] + p[S0,T1,K1] <= 0
 c14[S0,T1,K2]: - 5 x[S0,T1,K2] + p[S0,T1,K2] <= 0
 c14[S0,T2,K0]: - 5 x[S0,T2,K0] + p[S0,T2,K0] <= 0
 c14[S0,T2,K1]: - 5 x[S0,T2,K1] + p[S0,T2,K1] <= 0
 c14[S0,T2,K2]: - 5 x[S0,T2,K2] + p[S0,T2,K2] <= 0
 c14[S0,T3,K0]: - 5 x[S0,T3,K0] + p[S0,T3,K0] <= 0
 c14[S0,T3,K1]: - 5 x[S0,T3,K1] + p[S0,T3,K1] <= 0
 c14[S0,T3,K2]: - 5 x[S0,T3,K2] + p[S0,T3,K2] <= 0
 c14[S0,T4,K0]: - 5 x[S0,T4,K0] + p[S0,T4,K0] <= 0
 c14[S0,T4,K1]: - 5 x[S0,T4,K1] + p[S0,T4,K1] <= 0
 c14[S0,T4,K2]: - 5 x[S0,T4,K2] + p[S0,T4,K2] <= 0
 c14[S0,D0,K0]: - 5 x[S0,D0,K0] + p[S0,D0,K0] <= 0
 c14[S0,D0,K1]: - 5 x[S0,D0,K1] + p[S0,D0,K1] <= 0
 c14[S0,D0,K2]: - 5 x[S0,D0,K2] + p[S0,D0,K2] <= 0
 c14[S0,D1,K0]: - 5 x[S0,D1,K0] + p[S0,D1,K0] <= 0
 c14[S0,D1,K1]: - 5 x[S0,D1,K1] + p[S0,D1,K1] <= 0
 c14[S0,D1,K2]: - 5 x[S0,D1,K2] + p[S0,D1,K2] <= 0
 c14[S0,D2,K0]: - 5 x[S0,D2,K0] + p[S0,D2,K0] <= 0
 c14[S0,D2,K1]: - 5 x[S0,D2,K1] + p[S0,D2,K1] <= 0
 c14[S0,D2,K2]: - 5 x[S0,D2,K2] + p[S0,D2,K2] <= 0
 c14[S0,D3,K0]: - 5 x[S0,D3,K0] + p[S0,D3,K0] <= 0
 c14[S0,D3,K1]: - 5 x[S0,D3,K1] + p[S0,D3,K1] <= 0
 c14[S0,D3,K2]: - 5 x[S0,D3,K2] + p[S0,D3,K2] <= 0
 c14[S0,D4,K0]: - 5 x[S0,D4,K0] + p[S0,D4,K0] <= 0
 c14[S0,D4,K1]: - 5 x[S0,D4,K1] + p[S0,D4,K1] <= 0
 c14[S0,D4,K2]: - 5 x[S0,D4,K2] + p[S0,D4,K2] <= 0
 c14[S0,E0,K0]: - 5 x[S0,E0,K0] + p[S0,E0,K0] <= 0
 c14[S0,E0,K1]: - 5 x[S0,E0,K1] + p[S0,E0,K1] <= 0
 c14[S0,E0,K2]: - 5 x[S0,E0,K2] + p[S0,E0,K2] <= 0
 c14[E0,T0,K0]: - 5 x[E0,T0,K0] + p[E0,T0,K0] <= 0
 c14[E0,T0,K1]: - 5 x[E0,T0,K1] + p[E0,T0,K1] <= 0
 c14[E0,T0,K2]: - 5 x[E0,T0,K2] + p[E0,T0,K2] <= 0
 c14[E0,T1,K0]: - 5 x[E0,T1,K0] + p[E0,T1,K0] <= 0
 c14[E0,T1,K1]: - 5 x[E0,T1,K1] + p[E0,T1,K1] <= 0
 c14[E0,T1,K2]: - 5 x[E0,T1,K2] + p[E0,T1,K2] <= 0
 c14[E0,T2,K0]: - 5 x[E0,T2,K0] + p[E0,T2,K0] <= 0
 c14[E0,T2,K1]: - 5 x[E0,T2,K1] + p[E0,T2,K1] <= 0
 c14[E0,T2,K2]: - 5 x[E0,T2,K2] + p[E0,T2,K2] <= 0
 c14[E0,T3,K0]: - 5 x[E0,T3,K0] + p[E0,T3,K0] <= 0
 c14[E0,T3,K1]: - 5 x[E0,T3,K1] + p[E0,T3,K1] <= 0
 c14[E0,T3,K2]: - 5 x[E0,T3,K2] + p[E0,T3,K2] <= 0
 c14[E0,T4,K0]: - 5 x[E0,T4,K0] + p[E0,T4,K0] <= 0
 c14[E0,T4,K1]: - 5 x[E0,T4,K1] + p[E0,T4,K1] <= 0
 c14[E0,T4,K2]: - 5 x[E0,T4,K2] + p[E0,T4,K2] <= 0
 c14[E0,D0,K0]: - 5 x[E0,D0,K0] + p[E0,D0,K0] <= 0
 c14[E0,D0,K1]: - 5 x[E0,D0,K1] + p[E0,D0,K1] <= 0
 c14[E0,D0,K2]: - 5 x[E0,D0,K2] + p[E0,D0,K2] <= 0
 c14[E0,D1,K0]: - 5 x[E0,D1,K0] + p[E0,D1,K0] <= 0
 c14[E0,D1,K1]: - 5 x[E0,D1,K1] + p[E0,D1,K1] <= 0
 c14[E0,D1,K2]: - 5 x[E0,D1,K2] + p[E0,D1,K2] <= 0
 c14[E0,D2,K0]: - 5 x[E0,D2,K0] + p[E0,D2,K0] <= 0
 c14[E0,D2,K1]: - 5 x[E0,D2,K1] + p[E0,D2,K1] <= 0
 c14[E0,D2,K2]: - 5 x[E0,D2,K2] + p[E0,D2,K2] <= 0
 c14[E0,D3,K0]: - 5 x[E0,D3,K0] + p[E0,D3,K0] <= 0
 c14[E0,D3,K1]: - 5 x[E0,D3,K1] + p[E0,D3,K1] <= 0
 c14[E0,D3,K2]: - 5 x[E0,D3,K2] + p[E0,D3,K2] <= 0
 c14[E0,D4,K0]: - 5 x[E0,D4,K0] + p[E0,D4,K0] <= 0
 c14[E0,D4,K1]: - 5 x[E0,D4,K1] + p[E0,D4,K1] <= 0
 c14[E0,D4,K2]: - 5 x[E0,D4,K2] + p[E0,D4,K2] <= 0
 c14[E0,S0,K0]: - 5 x[E0,S0,K0] + p[E0,S0,K0] <= 0
 c14[E0,S0,K1]: - 5 x[E0,S0,K1] + p[E0,S0,K1] <= 0
 c14[E0,S0,K2]: - 5 x[E0,S0,K2] + p[E0,S0,K2] <= 0
 c15[T0,T1,K0]: 1e+06 x[T0,T1,K0] - r[T0] + r[T1] <= 999956.4537447854
 c15[T0,T1,K1]: 1e+06 x[T0,T1,K1] - r[T0] + r[T1] <= 999956.4537447854
 c15[T0,T1,K2]: 1e+06 x[T0,T1,K2] - r[T0] + r[T1] <= 999956.4537447854
 c15[T0,T2,K0]: 1e+06 x[T0,T2,K0] - r[T0] + r[T2] <= 999982.7347170435
 c15[T0,T2,K1]: 1e+06 x[T0,T2,K1] - r[T0] + r[T2] <= 999982.7347170435
 c15[T0,T2,K2]: 1e+06 x[T0,T2,K2] - r[T0] + r[T2] <= 999982.7347170435
 c15[T0,T3,K0]: 1e+06 x[T0,T3,K0] - r[T0] + r[T3] <= 999973.7499398945
 c15[T0,T3,K1]: 1e+06 x[T0,T3,K1] - r[T0] + r[T3] <= 999973.7499398945
 c15[T0,T3,K2]: 1e+06 x[T0,T3,K2] - r[T0] + r[T3] <= 999973.7499398945
 c15[T0,T4,K0]: 1e+06 x[T0,T4,K0] - r[T0] + r[T4] <= 999969.7112075321
 c15[T0,T4,K1]: 1e+06 x[T0,T4,K1] - r[T0] + r[T4] <= 999969.7112075321
 c15[T0,T4,K2]: 1e+06 x[T0,T4,K2] - r[T0] + r[T4] <= 999969.7112075321
 c15[T1,T0,K0]: 1e+06 x[T1,T0,K0] + r[T0] - r[T1] <= 999956.4537447854
 c15[T1,T0,K1]: 1e+06 x[T1,T0,K1] + r[T0] - r[T1] <= 999956.4537447854
 c15[T1,T0,K2]: 1e+06 x[T1,T0,K2] + r[T0] - r[T1] <= 999956.4537447854
 c15[T1,T2,K0]: 1e+06 x[T1,T2,K0] - r[T1] + r[T2] <= 999941.9987258085
 c15[T1,T2,K1]: 1e+06 x[T1,T2,K1] - r[T1] + r[T2] <= 999941.9987258085
 c15[T1,T2,K2]: 1e+06 x[T1,T2,K2] - r[T1] + r[T2] <= 999941.9987258085
 c15[T1,T3,K0]: 1e+06 x[T1,T3,K0] - r[T1] + r[T3] <= 999943.8864263669
 c15[T1,T3,K1]: 1e+06 x[T1,T3,K1] - r[T1] + r[T3] <= 999943.8864263669
 c15[T1,T3,K2]: 1e+06 x[T1,T3,K2] - r[T1] + r[T3] <= 999943.8864263669
 c15[T1,T4,K0]: 1e+06 x[T1,T4,K0] - r[T1] + r[T4] <= 999961.5626461135
 c15[T1,T4,K1]: 1e+06 x[T1,T4,K1] - r[T1] + r[T4] <= 999961.5626461135
 c15[T1,T4,K2]: 1e+06 x[T1,T4,K2] - r[T1] + r[T4] <= 999961.5626461135
 c15[T2,T0,K0]: 1e+06 x[T2,T0,K0] + r[T0] - r[T2] <= 999982.7347170435
 c15[T2,T0,K1]: 1e+06 x[T2,T0,K1] + r[T0] - r[T2] <= 999982.7347170435
 c15[T2,T0,K2]: 1e+06 x[T2,T0,K2] + r[T0] - r[T2] <= 999982.7347170435
 c15[T2,T1,K0]: 1e+06 x[T2,T1,K0] + r[T1] - r[T2] <= 999941.9987258085
 c15[T2,T1,K1]: 1e+06 x[T2,T1,K1] + r[T1] - r[T2] <= 999941.9987258085
 c15[T2,T1,K2]: 1e+06 x[T2,T1,K2] + r[T1] - r[T2] <= 999941.9987258085
 c15[T2,T3,K0]: 1e+06 x[T2,T3,K0] - r[T2] + r[T3] <= 999963.0493031698
 c15[T2,T3,K1]: 1e+06 x[T2,T3,K1] - r[T2] + r[T3] <= 999963.0493031698
 c15[T2,T3,K2]: 1e+06 x[T2,T3,K2] - r[T2] + r[T3] <= 999963.0493031698
 c15[T2,T4,K0]: 1e+06 x[T2,T4,K0] - r[T2] + r[T4] <= 999967.4262715281
 c15[T2,T4,K1]: 1e+06 x[T2,T4,K1] - r[T2] + r[T4] <= 999967.4262715281
 c15[T2,T4,K2]: 1e+06 x[T2,T4,K2] - r[T2] + r[T4] <= 999967.4262715281
 c15[T3,T0,K0]: 1e+06 x[T3,T0,K0] + r[T0] - r[T3] <= 999973.7499398945
 c15[T3,T0,K1]: 1e+06 x[T3,T0,K1] + r[T0] - r[T3] <= 999973.7499398945
 c15[T3,T0,K2]: 1e+06 x[T3,T0,K2] + r[T0] - r[T3] <= 999973.7499398945
 c15[T3,T1,K0]: 1e+06 x[T3,T1,K0] + r[T1] - r[T3] <= 999943.8864263669
 c15[T3,T1,K1]: 1e+06 x[T3,T1,K1] + r[T1] - r[T3] <= 999943.8864263669
 c15[T3,T1,K2]: 1e+06 x[T3,T1,K2] + r[T1] - r[T3] <= 999943.8864263669
 c15[T3,T2,K0]: 1e+06 x[T3,T2,K0] + r[T2] - r[T3] <= 999963.0493031698
 c15[T3,T2,K1]: 1e+06 x[T3,T2,K1] + r[T2] - r[T3] <= 999963.0493031698
 c15[T3,T2,K2]: 1e+06 x[T3,T2,K2] + r[T2] - r[T3] <= 999963.0493031698
 c15[T3,T4,K0]: 1e+06 x[T3,T4,K0] - r[T3] + r[T4] <= 999944.0201048175
 c15[T3,T4,K1]: 1e+06 x[T3,T4,K1] - r[T3] + r[T4] <= 999944.0201048175
 c15[T3,T4,K2]: 1e+06 x[T3,T4,K2] - r[T3] + r[T4] <= 999944.0201048175
 c15[T4,T0,K0]: 1e+06 x[T4,T0,K0] + r[T0] - r[T4] <= 999969.7112075321
 c15[T4,T0,K1]: 1e+06 x[T4,T0,K1] + r[T0] - r[T4] <= 999969.7112075321
 c15[T4,T0,K2]: 1e+06 x[T4,T0,K2] + r[T0] - r[T4] <= 999969.7112075321
 c15[T4,T1,K0]: 1e+06 x[T4,T1,K0] + r[T1] - r[T4] <= 999961.5626461135
 c15[T4,T1,K1]: 1e+06 x[T4,T1,K1] + r[T1] - r[T4] <= 999961.5626461135
 c15[T4,T1,K2]: 1e+06 x[T4,T1,K2] + r[T1] - r[T4] <= 999961.5626461135
 c15[T4,T2,K0]: 1e+06 x[T4,T2,K0] + r[T2] - r[T4] <= 999967.4262715281
 c15[T4,T2,K1]: 1e+06 x[T4,T2,K1] + r[T2] - r[T4] <= 999967.4262715281
 c15[T4,T2,K2]: 1e+06 x[T4,T2,K2] + r[T2] - r[T4] <= 999967.4262715281
 c15[T4,T3,K0]: 1e+06 x[T4,T3,K0] + r[T3] - r[T4] <= 999944.0201048175
 c15[T4,T3,K1]: 1e+06 x[T4,T3,K1] + r[T3] - r[T4] <= 999944.0201048175
 c15[T4,T3,K2]: 1e+06 x[T4,T3,K2] + r[T3] - r[T4] <= 999944.0201048175
 c16[T0,T1,K0]: - 1e+06 x[T0,T1,K0] - r[T0] + r[T1]
   >= -1.0000435462552146e+06
 c16[T0,T1,K1]: - 1e+06 x[T0,T1,K1] - r[T0] + r[T1]
   >= -1.0000435462552146e+06
 c16[T0,T1,K2]: - 1e+06 x[T0,T1,K2] - r[T0] + r[T1]
   >= -1.0000435462552146e+06
 c16[T0,T2,K0]: - 1e+06 x[T0,T2,K0] - r[T0] + r[T2]
   >= -1.0000172652829565e+06
 c16[T0,T2,K1]: - 1e+06 x[T0,T2,K1] - r[T0] + r[T2]
   >= -1.0000172652829565e+06
 c16[T0,T2,K2]: - 1e+06 x[T0,T2,K2] - r[T0] + r[T2]
   >= -1.0000172652829565e+06
 c16[T0,T3,K0]: - 1e+06 x[T0,T3,K0] - r[T0] + r[T3]
   >= -1.0000262500601055e+06
 c16[T0,T3,K1]: - 1e+06 x[T0,T3,K1] - r[T0] + r[T3]
   >= -1.0000262500601055e+06
 c16[T0,T3,K2]: - 1e+06 x[T0,T3,K2] - r[T0] + r[T3]
   >= -1.0000262500601055e+06
 c16[T0,T4,K0]: - 1e+06 x[T0,T4,K0] - r[T0] + r[T4]
   >= -1.0000302887924679e+06
 c16[T0,T4,K1]: - 1e+06 x[T0,T4,K1] - r[T0] + r[T4]
   >= -1.0000302887924679e+06
 c16[T0,T4,K2]: - 1e+06 x[T0,T4,K2] - r[T0] + r[T4]
   >= -1.0000302887924679e+06
 c16[T1,T0,K0]: - 1e+06 x[T1,T0,K0] + r[T0] - r[T1]
   >= -1.0000435462552146e+06
 c16[T1,T0,K1]: - 1e+06 x[T1,T0,K1] + r[T0] - r[T1]
   >= -1.0000435462552146e+06
 c16[T1,T0,K2]: - 1e+06 x[T1,T0,K2] + r[T0] - r[T1]
   >= -1.0000435462552146e+06
 c16[T1,T2,K0]: - 1e+06 x[T1,T2,K0] - r[T1] + r[T2]
   >= -1.0000580012741915e+06
 c16[T1,T2,K1]: - 1e+06 x[T1,T2,K1] - r[T1] + r[T2]
   >= -1.0000580012741915e+06
 c16[T1,T2,K2]: - 1e+06 x[T1,T2,K2] - r[T1] + r[T2]
   >= -1.0000580012741915e+06
 c16[T1,T3,K0]: - 1e+06 x[T1,T3,K0] - r[T1] + r[T3]
   >= -1.0000561135736331e+06
 c16[T1,T3,K1]: - 1e+06 x[T1,T3,K1] - r[T1] + r[T3]
   >= -1.0000561135736331e+06
 c16[T1,T3,K2]: - 1e+06 x[T1,T3,K2] - r[T1] + r[T3]
   >= -1.0000561135736331e+06
 c16[T1,T4,K0]: - 1e+06 x[T1,T4,K0] - r[T1] + r[T4]
   >= -1.0000384373538865e+06
 c16[T1,T4,K1]: - 1e+06 x[T1,T4,K1] - r[T1] + r[T4]
   >= -1.0000384373538865e+06
 c16[T1,T4,K2]: - 1e+06 x[T1,T4,K2] - r[T1] + r[T4]
   >= -1.0000384373538865e+06
 c16[T2,T0,K0]: - 1e+06 x[T2,T0,K0] + r[T0] - r[T2]
   >= -1.0000172652829565e+06
 c16[T2,T0,K1]: - 1e+06 x[T2,T0,K1] + r[T0] - r[T2]
   >= -1.0000172652829565e+06
 c16[T2,T0,K2]: - 1e+06 x[T2,T0,K2] + r[T0] - r[T2]
   >= -1.0000172652829565e+06
 c16[T2,T1,K0]: - 1e+06 x[T2,T1,K0] + r[T1] - r[T2]
   >= -1.0000580012741915e+06
 c16[T2,T1,K1]: - 1e+06 x[T2,T1,K1] + r[T1] - r[T2]
   >= -1.0000580012741915e+06
 c16[T2,T1,K2]: - 1e+06 x[T2,T1,K2] + r[T1] - r[T2]
   >= -1.0000580012741915e+06
 c16[T2,T3,K0]: - 1e+06 x[T2,T3,K0] - r[T2] + r[T3]
   >= -1.0000369506968302e+06
 c16[T2,T3,K1]: - 1e+06 x[T2,T3,K1] - r[T2] + r[T3]
   >= -1.0000369506968302e+06
 c16[T2,T3,K2]: - 1e+06 x[T2,T3,K2] - r[T2] + r[T3]
   >= -1.0000369506968302e+06
 c16[T2,T4,K0]: - 1e+06 x[T2,T4,K0] - r[T2] + r[T4]
   >= -1.0000325737284719e+06
 c16[T2,T4,K1]: - 1e+06 x[T2,T4,K1] - r[T2] + r[T4]
   >= -1.0000325737284719e+06
 c16[T2,T4,K2]: - 1e+06 x[T2,T4,K2] - r[T2] + r[T4]
   >= -1.0000325737284719e+06
 c16[T3,T0,K0]: - 1e+06 x[T3,T0,K0] + r[T0] - r[T3]
   >= -1.0000262500601055e+06
 c16[T3,T0,K1]: - 1e+06 x[T3,T0,K1] + r[T0] - r[T3]
   >= -1.0000262500601055e+06
 c16[T3,T0,K2]: - 1e+06 x[T3,T0,K2] + r[T0] - r[T3]
   >= -1.0000262500601055e+06
 c16[T3,T1,K0]: - 1e+06 x[T3,T1,K0] + r[T1] - r[T3]
   >= -1.0000561135736331e+06
 c16[T3,T1,K1]: - 1e+06 x[T3,T1,K1] + r[T1] - r[T3]
   >= -1.0000561135736331e+06
 c16[T3,T1,K2]: - 1e+06 x[T3,T1,K2] + r[T1] - r[T3]
   >= -1.0000561135736331e+06
 c16[T3,T2,K0]: - 1e+06 x[T3,T2,K0] + r[T2] - r[T3]
   >= -1.0000369506968302e+06
 c16[T3,T2,K1]: - 1e+06 x[T3,T2,K1] + r[T2] - r[T3]
   >= -1.0000369506968302e+06
 c16[T3,T2,K2]: - 1e+06 x[T3,T2,K2] + r[T2] - r[T3]
   >= -1.0000369506968302e+06
 c16[T3,T4,K0]: - 1e+06 x[T3,T4,K0] - r[T3] + r[T4]
   >= -1.0000559798951825e+06
 c16[T3,T4,K1]: - 1e+06 x[T3,T4,K1] - r[T3] + r[T4]
   >= -1.0000559798951825e+06
 c16[T3,T4,K2]: - 1e+06 x[T3,T4,K2] - r[T3] + r[T4]
   >= -1.0000559798951825e+06
 c16[T4,T0,K0]: - 1e+06 x[T4,T0,K0] + r[T0] - r[T4]
   >= -1.0000302887924679e+06
 c16[T4,T0,K1]: - 1e+06 x[T4,T0,K1] + r[T0] - r[T4]
   >= -1.0000302887924679e+06
 c16[T4,T0,K2]: - 1e+06 x[T4,T0,K2] + r[T0] - r[T4]
   >= -1.0000302887924679e+06
 c16[T4,T1,K0]: - 1e+06 x[T4,T1,K0] + r[T1] - r[T4]
   >= -1.0000384373538865e+06
 c16[T4,T1,K1]: - 1e+06 x[T4,T1,K1] + r[T1] - r[T4]
   >= -1.0000384373538865e+06
 c16[T4,T1,K2]: - 1e+06 x[T4,T1,K2] + r[T1] - r[T4]
   >= -1.0000384373538865e+06
 c16[T4,T2,K0]: - 1e+06 x[T4,T2,K0] + r[T2] - r[T4]
   >= -1.0000325737284719e+06
 c16[T4,T2,K1]: - 1e+06 x[T4,T2,K1] + r[T2] - r[T4]
   >= -1.0000325737284719e+06
 c16[T4,T2,K2]: - 1e+06 x[T4,T2,K2] + r[T2] - r[T4]
   >= -1.0000325737284719e+06
 c16[T4,T3,K0]: - 1e+06 x[T4,T3,K0] + r[T3] - r[T4]
   >= -1.0000559798951825e+06
 c16[T4,T3,K1]: - 1e+06 x[T4,T3,K1] + r[T3] - r[T4]
   >= -1.0000559798951825e+06
 c16[T4,T3,K2]: - 1e+06 x[T4,T3,K2] + r[T3] - r[T4]
   >= -1.0000559798951825e+06
 c18[D0,T0,K0]: 1e+06 x[D0,T0,K0] + r[T0] <= 1.0001063907104924e+06
 c18[D0,T0,K1]: 1e+06 x[D0,T0,K1] + r[T0] <= 1.0001063907104924e+06
 c18[D0,T0,K2]: 1e+06 x[D0,T0,K2] + r[T0] <= 1.0001063907104924e+06
 c18[D0,T1,K0]: 1e+06 x[D0,T1,K0] + r[T1] <= 1.0000781229448118e+06
 c18[D0,T1,K1]: 1e+06 x[D0,T1,K1] + r[T1] <= 1.0000781229448118e+06
 c18[D0,T1,K2]: 1e+06 x[D0,T1,K2] + r[T1] <= 1.0000781229448118e+06
 c18[D0,T2,K0]: 1e+06 x[D0,T2,K0] + r[T2] <= 1.0000984202520575e+06
 c18[D0,T2,K1]: 1e+06 x[D0,T2,K1] + r[T2] <= 1.0000984202520575e+06
 c18[D0,T2,K2]: 1e+06 x[D0,T2,K2] + r[T2] <= 1.0000984202520575e+06
 c18[D0,T3,K0]: 1e+06 x[D0,T3,K0] + r[T3] <= 1.0001321763494505e+06
 c18[D0,T3,K1]: 1e+06 x[D0,T3,K1] + r[T3] <= 1.0001321763494505e+06
 c18[D0,T3,K2]: 1e+06 x[D0,T3,K2] + r[T3] <= 1.0001321763494505e+06
 c18[D0,T4,K0]: 1e+06 x[D0,T4,K0] + r[T4] <= 1.0000763381892911e+06
 c18[D0,T4,K1]: 1e+06 x[D0,T4,K1] + r[T4] <= 1.0000763381892911e+06
 c18[D0,T4,K2]: 1e+06 x[D0,T4,K2] + r[T4] <= 1.0000763381892911e+06
 c18[D1,T0,K0]: 1e+06 x[D1,T0,K0] + r[T0] <= 1.0000853497198569e+06
 c18[D1,T0,K1]: 1e+06 x[D1,T0,K1] + r[T0] <= 1.0000853497198569e+06
 c18[D1,T0,K2]: 1e+06 x[D1,T0,K2] + r[T0] <= 1.0000853497198569e+06
 c18[D1,T1,K0]: 1e+06 x[D1,T1,K0] + r[T1] <= 1.0000486744687409e+06
 c18[D1,T1,K1]: 1e+06 x[D1,T1,K1] + r[T1] <= 1.0000486744687409e+06
 c18[D1,T1,K2]: 1e+06 x[D1,T1,K2] + r[T1] <= 1.0000486744687409e+06
 c18[D1,T2,K0]: 1e+06 x[D1,T2,K0] + r[T2] <= 1.0000857984279314e+06
 c18[D1,T2,K1]: 1e+06 x[D1,T2,K1] + r[T2] <= 1.0000857984279314e+06
 c18[D1,T2,K2]: 1e+06 x[D1,T2,K2] + r[T2] <= 1.0000857984279314e+06
 c18[D1,T3,K0]: 1e+06 x[D1,T3,K0] + r[T3] <= 1.0001047300942217e+06
 c18[D1,T3,K1]: 1e+06 x[D1,T3,K1] + r[T3] <= 1.0001047300942217e+06
 c18[D1,T3,K2]: 1e+06 x[D1,T3,K2] + r[T3] <= 1.0001047300942217e+06
 c18[D1,T4,K0]: 1e+06 x[D1,T4,K0] + r[T4] <= 1.0000560386246996e+06
 c18[D1,T4,K1]: 1e+06 x[D1,T4,K1] + r[T4] <= 1.0000560386246996e+06
 c18[D1,T4,K2]: 1e+06 x[D1,T4,K2] + r[T4] <= 1.0000560386246996e+06
 c18[D2,T0,K0]: 1e+06 x[D2,T0,K0] + r[T0] <= 1.0000937743939869e+06
 c18[D2,T0,K1]: 1e+06 x[D2,T0,K1] + r[T0] <= 1.0000937743939869e+06
 c18[D2,T0,K2]: 1e+06 x[D2,T0,K2] + r[T0] <= 1.0000937743939869e+06
 c18[D2,T1,K0]: 1e+06 x[D2,T1,K0] + r[T1] <= 1.0001144554896179e+06
 c18[D2,T1,K1]: 1e+06 x[D2,T1,K1] + r[T1] <= 1.0001144554896179e+06
 c18[D2,T1,K2]: 1e+06 x[D2,T1,K2] + r[T1] <= 1.0001144554896179e+06
 c18[D2,T2,K0]: 1e+06 x[D2,T2,K0] + r[T2] <= 1.0000765092731905e+06
 c18[D2,T2,K1]: 1e+06 x[D2,T2,K1] + r[T2] <= 1.0000765092731905e+06
 c18[D2,T2,K2]: 1e+06 x[D2,T2,K2] + r[T2] <= 1.0000765092731905e+06
 c18[D2,T3,K0]: 1e+06 x[D2,T3,K0] + r[T3] <= 1.0000989561217685e+06
 c18[D2,T3,K1]: 1e+06 x[D2,T3,K1] + r[T3] <= 1.0000989561217685e+06
 c18[D2,T3,K2]: 1e+06 x[D2,T3,K2] + r[T3] <= 1.0000989561217685e+06
 c18[D2,T4,K0]: 1e+06 x[D2,T4,K0] + r[T4] <= 1.0000821884742902e+06
 c18[D2,T4,K1]: 1e+06 x[D2,T4,K1] + r[T4] <= 1.0000821884742902e+06
 c18[D2,T4,K2]: 1e+06 x[D2,T4,K2] + r[T4] <= 1.0000821884742902e+06
 c18[D3,T0,K0]: 1e+06 x[D3,T0,K0] + r[T0] <= 1.0001300132278355e+06
 c18[D3,T0,K1]: 1e+06 x[D3,T0,K1] + r[T0] <= 1.0001300132278355e+06
 c18[D3,T0,K2]: 1e+06 x[D3,T0,K2] + r[T0] <= 1.0001300132278355e+06
 c18[D3,T1,K0]: 1e+06 x[D3,T1,K0] + r[T1] <= 1.0001248332004554e+06
 c18[D3,T1,K1]: 1e+06 x[D3,T1,K1] + r[T1] <= 1.0001248332004554e+06
 c18[D3,T1,K2]: 1e+06 x[D3,T1,K2] + r[T1] <= 1.0001248332004554e+06
 c18[D3,T2,K0]: 1e+06 x[D3,T2,K0] + r[T2] <= 1.0001171108353948e+06
 c18[D3,T2,K1]: 1e+06 x[D3,T2,K1] + r[T2] <= 1.0001171108353948e+06
 c18[D3,T2,K2]: 1e+06 x[D3,T2,K2] + r[T2] <= 1.0001171108353948e+06
 c18[D3,T3,K0]: 1e+06 x[D3,T3,K0] + r[T3] <= 1.0001095389732263e+06
 c18[D3,T3,K1]: 1e+06 x[D3,T3,K1] + r[T3] <= 1.0001095389732263e+06
 c18[D3,T3,K2]: 1e+06 x[D3,T3,K2] + r[T3] <= 1.0001095389732263e+06
 c18[D3,T4,K0]: 1e+06 x[D3,T4,K0] + r[T4] <= 1.0001294681529336e+06
 c18[D3,T4,K1]: 1e+06 x[D3,T4,K1] + r[T4] <= 1.0001294681529336e+06
 c18[D3,T4,K2]: 1e+06 x[D3,T4,K2] + r[T4] <= 1.0001294681529336e+06
 c18[D4,T0,K0]: 1e+06 x[D4,T0,K0] + r[T0] <= 1.0001416561981422e+06
 c18[D4,T0,K1]: 1e+06 x[D4,T0,K1] + r[T0] <= 1.0001416561981422e+06
 c18[D4,T0,K2]: 1e+06 x[D4,T0,K2] + r[T0] <= 1.0001416561981422e+06
 c18[D4,T1,K0]: 1e+06 x[D4,T1,K0] + r[T1] <= 1.0001146652394951e+06
 c18[D4,T1,K1]: 1e+06 x[D4,T1,K1] + r[T1] <= 1.0001146652394951e+06
 c18[D4,T1,K2]: 1e+06 x[D4,T1,K2] + r[T1] <= 1.0001146652394951e+06
 c18[D4,T2,K0]: 1e+06 x[D4,T2,K0] + r[T2] <= 1.0001251426107173e+06
 c18[D4,T2,K1]: 1e+06 x[D4,T2,K1] + r[T2] <= 1.0001251426107173e+06
 c18[D4,T2,K2]: 1e+06 x[D4,T2,K2] + r[T2] <= 1.0001251426107173e+06
 c18[D4,T3,K0]: 1e+06 x[D4,T3,K0] + r[T3] <= 1.0001217612421873e+06
 c18[D4,T3,K1]: 1e+06 x[D4,T3,K1] + r[T3] <= 1.0001217612421873e+06
 c18[D4,T3,K2]: 1e+06 x[D4,T3,K2] + r[T3] <= 1.0001217612421873e+06
 c18[D4,T4,K0]: 1e+06 x[D4,T4,K0] + r[T4] <= 1.0001216468589167e+06
 c18[D4,T4,K1]: 1e+06 x[D4,T4,K1] + r[T4] <= 1.0001216468589167e+06
 c18[D4,T4,K2]: 1e+06 x[D4,T4,K2] + r[T4] <= 1.0001216468589167e+06
 c18[S0,T0,K0]: 1e+06 x[S0,T0,K0] + r[T0] <= 1.0001063907104924e+06
 c18[S0,T0,K1]: 1e+06 x[S0,T0,K1] + r[T0] <= 1.0001063907104924e+06
 c18[S0,T0,K2]: 1e+06 x[S0,T0,K2] + r[T0] <= 1.0001063907104924e+06
 c18[S0,T1,K0]: 1e+06 x[S0,T1,K0] + r[T1] <= 1.0000781229448118e+06
 c18[S0,T1,K1]: 1e+06 x[S0,T1,K1] + r[T1] <= 1.0000781229448118e+06
 c18[S0,T1,K2]: 1e+06 x[S0,T1,K2] + r[T1] <= 1.0000781229448118e+06
 c18[S0,T2,K0]: 1e+06 x[S0,T2,K0] + r[T2] <= 1.0000984202520575e+06
 c18[S0,T2,K1]: 1e+06 x[S0,T2,K1] + r[T2] <= 1.0000984202520575e+06
 c18[S0,T2,K2]: 1e+06 x[S0,T2,K2] + r[T2] <= 1.0000984202520575e+06
 c18[S0,T3,K0]: 1e+06 x[S0,T3,K0] + r[T3] <= 1.0001321763494505e+06
 c18[S0,T3,K1]: 1e+06 x[S0,T3,K1] + r[T3] <= 1.0001321763494505e+06
 c18[S0,T3,K2]: 1e+06 x[S0,T3,K2] + r[T3] <= 1.0001321763494505e+06
 c18[S0,T4,K0]: 1e+06 x[S0,T4,K0] + r[T4] <= 1.0000763381892911e+06
 c18[S0,T4,K1]: 1e+06 x[S0,T4,K1] + r[T4] <= 1.0000763381892911e+06
 c18[S0,T4,K2]: 1e+06 x[S0,T4,K2] + r[T4] <= 1.0000763381892911e+06
 c17[D0,T0,K0]: - 1e+06 x[D0,T0,K0] + r[T0] >= -999893.6092895076
 c17[D0,T0,K1]: - 1e+06 x[D0,T0,K1] + r[T0] >= -999893.6092895076
 c17[D0,T0,K2]: - 1e+06 x[D0,T0,K2] + r[T0] >= -999893.6092895076
 c17[D0,T1,K0]: - 1e+06 x[D0,T1,K0] + r[T1] >= -999921.8770551882
 c17[D0,T1,K1]: - 1e+06 x[D0,T1,K1] + r[T1] >= -999921.8770551882
 c17[D0,T1,K2]: - 1e+06 x[D0,T1,K2] + r[T1] >= -999921.8770551882
 c17[D0,T2,K0]: - 1e+06 x[D0,T2,K0] + r[T2] >= -999901.5797479425
 c17[D0,T2,K1]: - 1e+06 x[D0,T2,K1] + r[T2] >= -999901.5797479425
 c17[D0,T2,K2]: - 1e+06 x[D0,T2,K2] + r[T2] >= -999901.5797479425
 c17[D0,T3,K0]: - 1e+06 x[D0,T3,K0] + r[T3] >= -999867.8236505495
 c17[D0,T3,K1]: - 1e+06 x[D0,T3,K1] + r[T3] >= -999867.8236505495
 c17[D0,T3,K2]: - 1e+06 x[D0,T3,K2] + r[T3] >= -999867.8236505495
 c17[D0,T4,K0]: - 1e+06 x[D0,T4,K0] + r[T4] >= -999923.6618107089
 c17[D0,T4,K1]: - 1e+06 x[D0,T4,K1] + r[T4] >= -999923.6618107089
 c17[D0,T4,K2]: - 1e+06 x[D0,T4,K2] + r[T4] >= -999923.6618107089
 c17[D1,T0,K0]: - 1e+06 x[D1,T0,K0] + r[T0] >= -999914.6502801431
 c17[D1,T0,K1]: - 1e+06 x[D1,T0,K1] + r[T0] >= -999914.6502801431
 c17[D1,T0,K2]: - 1e+06 x[D1,T0,K2] + r[T0] >= -999914.6502801431
 c17[D1,T1,K0]: - 1e+06 x[D1,T1,K0] + r[T1] >= -999951.3255312591
 c17[D1,T1,K1]: - 1e+06 x[D1,T1,K1] + r[T1] >= -999951.3255312591
 c17[D1,T1,K2]: - 1e+06 x[D1,T1,K2] + r[T1] >= -999951.3255312591
 c17[D1,T2,K0]: - 1e+06 x[D1,T2,K0] + r[T2] >= -999914.2015720686
 c17[D1,T2,K1]: - 1e+06 x[D1,T2,K1] + r[T2] >= -999914.2015720686
 c17[D1,T2,K2]: - 1e+06 x[D1,T2,K2] + r[T2] >= -999914.2015720686
 c17[D1,T3,K0]: - 1e+06 x[D1,T3,K0] + r[T3] >= -999895.2699057784
 c17[D1,T3,K1]: - 1e+06 x[D1,T3,K1] + r[T3] >= -999895.2699057784
 c17[D1,T3,K2]: - 1e+06 x[D1,T3,K2] + r[T3] >= -999895.2699057784
 c17[D1,T4,K0]: - 1e+06 x[D1,T4,K0] + r[T4] >= -999943.9613753004
 c17[D1,T4,K1]: - 1e+06 x[D1,T4,K1] + r[T4] >= -999943.9613753004
 c17[D1,T4,K2]: - 1e+06 x[D1,T4,K2] + r[T4] >= -999943.9613753004
 c17[D2,T0,K0]: - 1e+06 x[D2,T0,K0] + r[T0] >= -999906.2256060131
 c17[D2,T0,K1]: - 1e+06 x[D2,T0,K1] + r[T0] >= -999906.2256060131
 c17[D2,T0,K2]: - 1e+06 x[D2,T0,K2] + r[T0] >= -999906.2256060131
 c17[D2,T1,K0]: - 1e+06 x[D2,T1,K0] + r[T1] >= -999885.5445103821
 c17[D2,T1,K1]: - 1e+06 x[D2,T1,K1] + r[T1] >= -999885.5445103821
 c17[D2,T1,K2]: - 1e+06 x[D2,T1,K2] + r[T1] >= -999885.5445103821
 c17[D2,T2,K0]: - 1e+06 x[D2,T2,K0] + r[T2] >= -999923.4907268095
 c17[D2,T2,K1]: - 1e+06 x[D2,T2,K1] + r[T2] >= -999923.4907268095
 c17[D2,T2,K2]: - 1e+06 x[D2,T2,K2] + r[T2] >= -999923.4907268095
 c17[D2,T3,K0]: - 1e+06 x[D2,T3,K0] + r[T3] >= -999901.0438782316
 c17[D2,T3,K1]: - 1e+06 x[D2,T3,K1] + r[T3] >= -999901.0438782316
 c17[D2,T3,K2]: - 1e+06 x[D2,T3,K2] + r[T3] >= -999901.0438782316
 c17[D2,T4,K0]: - 1e+06 x[D2,T4,K0] + r[T4] >= -999917.8115257098
 c17[D2,T4,K1]: - 1e+06 x[D2,T4,K1] + r[T4] >= -999917.8115257098
 c17[D2,T4,K2]: - 1e+06 x[D2,T4,K2] + r[T4] >= -999917.8115257098
 c17[D3,T0,K0]: - 1e+06 x[D3,T0,K0] + r[T0] >= -999869.9867721645
 c17[D3,T0,K1]: - 1e+06 x[D3,T0,K1] + r[T0] >= -999869.9867721645
 c17[D3,T0,K2]: - 1e+06 x[D3,T0,K2] + r[T0] >= -999869.9867721645
 c17[D3,T1,K0]: - 1e+06 x[D3,T1,K0] + r[T1] >= -999875.1667995446
 c17[D3,T1,K1]: - 1e+06 x[D3,T1,K1] + r[T1] >= -999875.1667995446
 c17[D3,T1,K2]: - 1e+06 x[D3,T1,K2] + r[T1] >= -999875.1667995446
 c17[D3,T2,K0]: - 1e+06 x[D3,T2,K0] + r[T2] >= -999882.8891646052
 c17[D3,T2,K1]: - 1e+06 x[D3,T2,K1] + r[T2] >= -999882.8891646052
 c17[D3,T2,K2]: - 1e+06 x[D3,T2,K2] + r[T2] >= -999882.8891646052
 c17[D3,T3,K0]: - 1e+06 x[D3,T3,K0] + r[T3] >= -999890.4610267737
 c17[D3,T3,K1]: - 1e+06 x[D3,T3,K1] + r[T3] >= -999890.4610267737
 c17[D3,T3,K2]: - 1e+06 x[D3,T3,K2] + r[T3] >= -999890.4610267737
 c17[D3,T4,K0]: - 1e+06 x[D3,T4,K0] + r[T4] >= -999870.5318470664
 c17[D3,T4,K1]: - 1e+06 x[D3,T4,K1] + r[T4] >= -999870.5318470664
 c17[D3,T4,K2]: - 1e+06 x[D3,T4,K2] + r[T4] >= -999870.5318470664
 c17[D4,T0,K0]: - 1e+06 x[D4,T0,K0] + r[T0] >= -999858.3438018578
 c17[D4,T0,K1]: - 1e+06 x[D4,T0,K1] + r[T0] >= -999858.3438018578
 c17[D4,T0,K2]: - 1e+06 x[D4,T0,K2] + r[T0] >= -999858.3438018578
 c17[D4,T1,K0]: - 1e+06 x[D4,T1,K0] + r[T1] >= -999885.3347605049
 c17[D4,T1,K1]: - 1e+06 x[D4,T1,K1] + r[T1] >= -999885.3347605049
 c17[D4,T1,K2]: - 1e+06 x[D4,T1,K2] + r[T1] >= -999885.3347605049
 c17[D4,T2,K0]: - 1e+06 x[D4,T2,K0] + r[T2] >= -999874.8573892827
 c17[D4,T2,K1]: - 1e+06 x[D4,T2,K1] + r[T2] >= -999874.8573892827
 c17[D4,T2,K2]: - 1e+06 x[D4,T2,K2] + r[T2] >= -999874.8573892827
 c17[D4,T3,K0]: - 1e+06 x[D4,T3,K0] + r[T3] >= -999878.2387578127
 c17[D4,T3,K1]: - 1e+06 x[D4,T3,K1] + r[T3] >= -999878.2387578127
 c17[D4,T3,K2]: - 1e+06 x[D4,T3,K2] + r[T3] >= -999878.2387578127
 c17[D4,T4,K0]: - 1e+06 x[D4,T4,K0] + r[T4] >= -999878.3531410833
 c17[D4,T4,K1]: - 1e+06 x[D4,T4,K1] + r[T4] >= -999878.3531410833
 c17[D4,T4,K2]: - 1e+06 x[D4,T4,K2] + r[T4] >= -999878.3531410833
 c17[S0,T0,K0]: - 1e+06 x[S0,T0,K0] + r[T0] >= -999893.6092895076
 c17[S0,T0,K1]: - 1e+06 x[S0,T0,K1] + r[T0] >= -999893.6092895076
 c17[S0,T0,K2]: - 1e+06 x[S0,T0,K2] + r[T0] >= -999893.6092895076
 c17[S0,T1,K0]: - 1e+06 x[S0,T1,K0] + r[T1] >= -999921.8770551882
 c17[S0,T1,K1]: - 1e+06 x[S0,T1,K1] + r[T1] >= -999921.8770551882
 c17[S0,T1,K2]: - 1e+06 x[S0,T1,K2] + r[T1] >= -999921.8770551882
 c17[S0,T2,K0]: - 1e+06 x[S0,T2,K0] + r[T2] >= -999901.5797479425
 c17[S0,T2,K1]: - 1e+06 x[S0,T2,K1] + r[T2] >= -999901.5797479425
 c17[S0,T2,K2]: - 1e+06 x[S0,T2,K2] + r[T2] >= -999901.5797479425
 c17[S0,T3,K0]: - 1e+06 x[S0,T3,K0] + r[T3] >= -999867.8236505495
 c17[S0,T3,K1]: - 1e+06 x[S0,T3,K1] + r[T3] >= -999867.8236505495
 c17[S0,T3,K2]: - 1e+06 x[S0,T3,K2] + r[T3] >= -999867.8236505495
 c17[S0,T4,K0]: - 1e+06 x[S0,T4,K0] + r[T4] >= -999923.6618107089
 c17[S0,T4,K1]: - 1e+06 x[S0,T4,K1] + r[T4] >= -999923.6618107089
 c17[S0,T4,K2]: - 1e+06 x[S0,T4,K2] + r[T4] >= -999923.6618107089
 c19[T0,D0,K0]: - 1e+06 x[T0,D0,K0] + r[T0] >= -999956.3907104924
 c19[T0,D0,K1]: - 1e+06 x[T0,D0,K1] + r[T0] >= -999956.3907104924
 c19[T0,D0,K2]: - 1e+06 x[T0,D0,K2] + r[T0] >= -999956.3907104924
 c19[T0,D1,K0]: - 1e+06 x[T0,D1,K0] + r[T0] >= -999935.3497198569
 c19[T0,D1,K1]: - 1e+06 x[T0,D1,K1] + r[T0] >= -999935.3497198569
 c19[T0,D1,K2]: - 1e+06 x[T0,D1,K2] + r[T0] >= -999935.3497198569
 c19[T0,D2,K0]: - 1e+06 x[T0,D2,K0] + r[T0] >= -999943.7743939869
 c19[T0,D2,K1]: - 1e+06 x[T0,D2,K1] + r[T0] >= -999943.7743939869
 c19[T0,D2,K2]: - 1e+06 x[T0,D2,K2] + r[T0] >= -999943.7743939869
 c19[T0,D3,K0]: - 1e+06 x[T0,D3,K0] + r[T0] >= -999980.0132278355
 c19[T0,D3,K1]: - 1e+06 x[T0,D3,K1] + r[T0] >= -999980.0132278355
 c19[T0,D3,K2]: - 1e+06 x[T0,D3,K2] + r[T0] >= -999980.0132278355
 c19[T0,D4,K0]: - 1e+06 x[T0,D4,K0] + r[T0] >= -999991.6561981422
 c19[T0,D4,K1]: - 1e+06 x[T0,D4,K1] + r[T0] >= -999991.6561981422
 c19[T0,D4,K2]: - 1e+06 x[T0,D4,K2] + r[T0] >= -999991.6561981422
 c19[T0,E0,K0]: - 1e+06 x[T0,E0,K0] + r[T0] >= -999956.3907104924
 c19[T0,E0,K1]: - 1e+06 x[T0,E0,K1] + r[T0] >= -999956.3907104924
 c19[T0,E0,K2]: - 1e+06 x[T0,E0,K2] + r[T0] >= -999956.3907104924
 c19[T1,D0,K0]: - 1e+06 x[T1,D0,K0] + r[T1] >= -999928.1229448118
 c19[T1,D0,K1]: - 1e+06 x[T1,D0,K1] + r[T1] >= -999928.1229448118
 c19[T1,D0,K2]: - 1e+06 x[T1,D0,K2] + r[T1] >= -999928.1229448118
 c19[T1,D1,K0]: - 1e+06 x[T1,D1,K0] + r[T1] >= -999898.6744687409
 c19[T1,D1,K1]: - 1e+06 x[T1,D1,K1] + r[T1] >= -999898.6744687409
 c19[T1,D1,K2]: - 1e+06 x[T1,D1,K2] + r[T1] >= -999898.6744687409
 c19[T1,D2,K0]: - 1e+06 x[T1,D2,K0] + r[T1] >= -999964.4554896179
 c19[T1,D2,K1]: - 1e+06 x[T1,D2,K1] + r[T1] >= -999964.4554896179
 c19[T1,D2,K2]: - 1e+06 x[T1,D2,K2] + r[T1] >= -999964.4554896179
 c19[T1,D3,K0]: - 1e+06 x[T1,D3,K0] + r[T1] >= -999974.8332004554
 c19[T1,D3,K1]: - 1e+06 x[T1,D3,K1] + r[T1] >= -999974.8332004554
 c19[T1,D3,K2]: - 1e+06 x[T1,D3,K2] + r[T1] >= -999974.8332004554
 c19[T1,D4,K0]: - 1e+06 x[T1,D4,K0] + r[T1] >= -999964.6652394951
 c19[T1,D4,K1]: - 1e+06 x[T1,D4,K1] + r[T1] >= -999964.6652394951
 c19[T1,D4,K2]: - 1e+06 x[T1,D4,K2] + r[T1] >= -999964.6652394951
 c19[T1,E0,K0]: - 1e+06 x[T1,E0,K0] + r[T1] >= -999928.1229448118
 c19[T1,E0,K1]: - 1e+06 x[T1,E0,K1] + r[T1] >= -999928.1229448118
 c19[T1,E0,K2]: - 1e+06 x[T1,E0,K2] + r[T1] >= -999928.1229448118
 c19[T2,D0,K0]: - 1e+06 x[T2,D0,K0] + r[T2] >= -999948.4202520575
 c19[T2,D0,K1]: - 1e+06 x[T2,D0,K1] + r[T2] >= -999948.4202520575
 c19[T2,D0,K2]: - 1e+06 x[T2,D0,K2] + r[T2] >= -999948.4202520575
 c19[T2,D1,K0]: - 1e+06 x[T2,D1,K0] + r[T2] >= -999935.7984279314
 c19[T2,D1,K1]: - 1e+06 x[T2,D1,K1] + r[T2] >= -999935.7984279314
 c19[T2,D1,K2]: - 1e+06 x[T2,D1,K2] + r[T2] >= -999935.7984279314
 c19[T2,D2,K0]: - 1e+06 x[T2,D2,K0] + r[T2] >= -999926.5092731905
 c19[T2,D2,K1]: - 1e+06 x[T2,D2,K1] + r[T2] >= -999926.5092731905
 c19[T2,D2,K2]: - 1e+06 x[T2,D2,K2] + r[T2] >= -999926.5092731905
 c19[T2,D3,K0]: - 1e+06 x[T2,D3,K0] + r[T2] >= -999967.1108353948
 c19[T2,D3,K1]: - 1e+06 x[T2,D3,K1] + r[T2] >= -999967.1108353948
 c19[T2,D3,K2]: - 1e+06 x[T2,D3,K2] + r[T2] >= -999967.1108353948
 c19[T2,D4,K0]: - 1e+06 x[T2,D4,K0] + r[T2] >= -999975.1426107173
 c19[T2,D4,K1]: - 1e+06 x[T2,D4,K1] + r[T2] >= -999975.1426107173
 c19[T2,D4,K2]: - 1e+06 x[T2,D4,K2] + r[T2] >= -999975.1426107173
 c19[T2,E0,K0]: - 1e+06 x[T2,E0,K0] + r[T2] >= -999948.4202520575
 c19[T2,E0,K1]: - 1e+06 x[T2,E0,K1] + r[T2] >= -999948.4202520575
 c19[T2,E0,K2]: - 1e+06 x[T2,E0,K2] + r[T2] >= -999948.4202520575
 c19[T3,D0,K0]: - 1e+06 x[T3,D0,K0] + r[T3] >= -999982.1763494505
 c19[T3,D0,K1]: - 1e+06 x[T3,D0,K1] + r[T3] >= -999982.1763494505
 c19[T3,D0,K2]: - 1e+06 x[T3,D0,K2] + r[T3] >= -999982.1763494505
 c19[T3,D1,K0]: - 1e+06 x[T3,D1,K0] + r[T3] >= -999954.7300942217
 c19[T3,D1,K1]: - 1e+06 x[T3,D1,K1] + r[T3] >= -999954.7300942217
 c19[T3,D1,K2]: - 1e+06 x[T3,D1,K2] + r[T3] >= -999954.7300942217
 c19[T3,D2,K0]: - 1e+06 x[T3,D2,K0] + r[T3] >= -999948.9561217685
 c19[T3,D2,K1]: - 1e+06 x[T3,D2,K1] + r[T3] >= -999948.9561217685
 c19[T3,D2,K2]: - 1e+06 x[T3,D2,K2] + r[T3] >= -999948.9561217685
 c19[T3,D3,K0]: - 1e+06 x[T3,D3,K0] + r[T3] >= -999959.5389732263
 c19[T3,D3,K1]: - 1e+06 x[T3,D3,K1] + r[T3] >= -999959.5389732263
 c19[T3,D3,K2]: - 1e+06 x[T3,D3,K2] + r[T3] >= -999959.5389732263
 c19[T3,D4,K0]: - 1e+06 x[T3,D4,K0] + r[T3] >= -999971.7612421874
 c19[T3,D4,K1]: - 1e+06 x[T3,D4,K1] + r[T3] >= -999971.7612421874
 c19[T3,D4,K2]: - 1e+06 x[T3,D4,K2] + r[T3] >= -999971.7612421874
 c19[T3,E0,K0]: - 1e+06 x[T3,E0,K0] + r[T3] >= -999982.1763494505
 c19[T3,E0,K1]: - 1e+06 x[T3,E0,K1] + r[T3] >= -999982.1763494505
 c19[T3,E0,K2]: - 1e+06 x[T3,E0,K2] + r[T3] >= -999982.1763494505
 c19[T4,D0,K0]: - 1e+06 x[T4,D0,K0] + r[T4] >= -999926.3381892911
 c19[T4,D0,K1]: - 1e+06 x[T4,D0,K1] + r[T4] >= -999926.3381892911
 c19[T4,D0,K2]: - 1e+06 x[T4,D0,K2] + r[T4] >= -999926.3381892911
 c19[T4,D1,K0]: - 1e+06 x[T4,D1,K0] + r[T4] >= -999906.0386246996
 c19[T4,D1,K1]: - 1e+06 x[T4,D1,K1] + r[T4] >= -999906.0386246996
 c19[T4,D1,K2]: - 1e+06 x[T4,D1,K2] + r[T4] >= -999906.0386246996
 c19[T4,D2,K0]: - 1e+06 x[T4,D2,K0] + r[T4] >= -999932.1884742902
 c19[T4,D2,K1]: - 1e+06 x[T4,D2,K1] + r[T4] >= -999932.1884742902
 c19[T4,D2,K2]: - 1e+06 x[T4,D2,K2] + r[T4] >= -999932.1884742902
 c19[T4,D3,K0]: - 1e+06 x[T4,D3,K0] + r[T4] >= -999979.4681529336
 c19[T4,D3,K1]: - 1e+06 x[T4,D3,K1] + r[T4] >= -999979.4681529336
 c19[T4,D3,K2]: - 1e+06 x[T4,D3,K2] + r[T4] >= -999979.4681529336
 c19[T4,D4,K0]: - 1e+06 x[T4,D4,K0] + r[T4] >= -999971.6468589167
 c19[T4,D4,K1]: - 1e+06 x[T4,D4,K1] + r[T4] >= -999971.6468589167
 c19[T4,D4,K2]: - 1e+06 x[T4,D4,K2] + r[T4] >= -999971.6468589167
 c19[T4,E0,K0]: - 1e+06 x[T4,E0,K0] + r[T4] >= -999926.3381892911
 c19[T4,E0,K1]: - 1e+06 x[T4,E0,K1] + r[T4] >= -999926.3381892911
 c19[T4,E0,K2]: - 1e+06 x[T4,E0,K2] + r[T4] >= -999926.3381892911
 c20[T0]: r[T0] <= 150
 c20[T1]: r[T1] <= 150
 c20[T2]: r[T2] <= 150
 c20[T3]: r[T3] <= 150
 c20[T4]: r[T4] <= 150
 c22[D0,D1,K0]: 32.50575983619561 x[D0,D1,K0] <= 150
 c22[D0,D1,K1]: 32.50575983619561 x[D0,D1,K1] <= 150
 c22[D0,D1,K2]: 32.50575983619561 x[D0,D1,K2] <= 150
 c22[D0,D2,K0]: 59.49758922840914 x[D0,D2,K0] <= 150
 c22[D0,D2,K1]: 59.49758922840914 x[D0,D2,K1] <= 150
 c22[D0,D2,K2]: 59.49758922840914 x[D0,D2,K2] <= 150
 c22[D0,D3,K0]: 58.16597795881433 x[D0,D3,K0] <= 150
 c22[D0,D3,K1]: 58.16597795881433 x[D0,D3,K1] <= 150
 c22[D0,D3,K2]: 58.16597795881433 x[D0,D3,K2] <= 150
 c22[D0,D4,K0]: 46.06237029703954 x[D0,D4,K0] <= 150
 c22[D0,D4,K1]: 46.06237029703954 x[D0,D4,K1] <= 150
 c22[D0,D4,K2]: 46.06237029703954 x[D0,D4,K2] <= 150
 c22[D0,S0,K0]: <= 150
 c22[D0,S0,K1]: <= 150
 c22[D0,S0,K2]: <= 150
 c22[D0,E0,K0]: <= 150
 c22[D0,E0,K1]: <= 150
 c22[D0,E0,K2]: <= 150
 c22[D1,D0,K0]: 32.50575983619561 x[D1,D0,K0] <= 150
 c22[D1,D0,K1]: 32.50575983619561 x[D1,D0,K1] <= 150
 c22[D1,D0,K2]: 32.50575983619561 x[D1,D0,K2] <= 150
 c22[D1,D2,K0]: 92.00237200508488 x[D1,D2,K0] <= 150
 c22[D1,D2,K1]: 92.00237200508488 x[D1,D2,K1] <= 150
 c22[D1,D2,K2]: 92.00237200508488 x[D1,D2,K2] <= 150
 c22[D1,D3,K0]: 83.23453069530241 x[D1,D3,K0] <= 150
 c22[D1,D3,K1]: 83.23453069530241 x[D1,D3,K1] <= 150
 c22[D1,D3,K2]: 83.23453069530241 x[D1,D3,K2] <= 150
 c22[D1,D4,K0]: 70.19174066524951 x[D1,D4,K0] <= 150
 c22[D1,D4,K1]: 70.19174066524951 x[D1,D4,K1] <= 150
 c22[D1,D4,K2]: 70.19174066524951 x[D1,D4,K2] <= 150
 c22[D1,S0,K0]: 32.50575983619561 x[D1,S0,K0] <= 150
 c22[D1,S0,K1]: 32.50575983619561 x[D1,S0,K1] <= 150
 c22[D1,S0,K2]: 32.50575983619561 x[D1,S0,K2] <= 150
 c22[D1,E0,K0]: 32.50575983619561 x[D1,E0,K0] <= 150
 c22[D1,E0,K1]: 32.50575983619561 x[D1,E0,K1] <= 150
 c22[D1,E0,K2]: 32.50575983619561 x[D1,E0,K2] <= 150
 c22[D2,D0,K0]: 59.49758922840914 x[D2,D0,K0] <= 150
 c22[D2,D0,K1]: 59.49758922840914 x[D2,D0,K1] <= 150
 c22[D2,D0,K2]: 59.49758922840914 x[D2,D0,K2] <= 150
 c22[D2,D1,K0]: 92.00237200508488 x[D2,D1,K0] <= 150
 c22[D2,D1,K1]: 92.00237200508488 x[D2,D1,K1] <= 150
 c22[D2,D1,K2]: 92.00237200508488 x[D2,D1,K2] <= 150
 c22[D2,D3,K0]: 48.15694349846896 x[D2,D3,K0] <= 150
 c22[D2,D3,K1]: 48.15694349846896 x[D2,D3,K1] <= 150
 c22[D2,D3,K2]: 48.15694349846896 x[D2,D3,K2] <= 150
 c22[D2,D4,K0]: 49.17847545633722 x[D2,D4,K0] <= 150
 c22[D2,D4,K1]: 49.17847545633722 x[D2,D4,K1] <= 150
 c22[D2,D4,K2]: 49.17847545633722 x[D2,D4,K2] <= 150
 c22[D2,S0,K0]: 59.49758922840914 x[D2,S0,K0] <= 150
 c22[D2,S0,K1]: 59.49758922840914 x[D2,S0,K1] <= 150
 c22[D2,S0,K2]: 59.49758922840914 x[D2,S0,K2] <= 150
 c22[D2,E0,K0]: 59.49758922840914 x[D2,E0,K0] <= 150
 c22[D2,E0,K1]: 59.49758922840914 x[D2,E0,K1] <= 150
 c22[D2,E0,K2]: 59.49758922840914 x[D2,E0,K2] <= 150
 c22[D3,D0,K0]: 58.16597795881433 x[D3,D0,K0] <= 150
 c22[D3,D0,K1]: 58.16597795881433 x[D3,D0,K1] <= 150
 c22[D3,D0,K2]: 58.16597795881433 x[D3,D0,K2] <= 150
 c22[D3,D1,K0]: 83.23453069530241 x[D3,D1,K0] <= 150
 c22[D3,D1,K1]: 83.23453069530241 x[D3,D1,K1] <= 150
 c22[D3,D1,K2]: 83.23453069530241 x[D3,D1,K2] <= 150
 c22[D3,D2,K0]: 48.15694349846896 x[D3,D2,K0] <= 150
 c22[D3,D2,K1]: 48.15694349846896 x[D3,D2,K1] <= 150
 c22[D3,D2,K2]: 48.15694349846896 x[D3,D2,K2] <= 150
 c22[D3,D4,K0]: 13.05597312125779 x[D3,D4,K0] <= 150
 c22[D3,D4,K1]: 13.05597312125779 x[D3,D4,K1] <= 150
 c22[D3,D4,K2]: 13.05597312125779 x[D3,D4,K2] <= 150
 c22[D3,S0,K0]: 58.16597795881433 x[D3,S0,K0] <= 150
 c22[D3,S0,K1]: 58.16597795881433 x[D3,S0,K1] <= 150
 c22[D3,S0,K2]: 58.16597795881433 x[D3,S0,K2] <= 150
 c22[D3,E0,K0]: 58.16597795881433 x[D3,E0,K0] <= 150
 c22[D3,E0,K1]: 58.16597795881433 x[D3,E0,K1] <= 150
 c22[D3,E0,K2]: 58.16597795881433 x[D3,E0,K2] <= 150
 c22[D4,D0,K0]: 46.06237029703954 x[D4,D0,K0] <= 150
 c22[D4,D0,K1]: 46.06237029703954 x[D4,D0,K1] <= 150
 c22[D4,D0,K2]: 46.06237029703954 x[D4,D0,K2] <= 150
 c22[D4,D1,K0]: 70.19174066524951 x[D4,D1,K0] <= 150
 c22[D4,D1,K1]: 70.19174066524951 x[D4,D1,K1] <= 150
 c22[D4,D1,K2]: 70.19174066524951 x[D4,D1,K2] <= 150
 c22[D4,D2,K0]: 49.17847545633722 x[D4,D2,K0] <= 150
 c22[D4,D2,K1]: 49.17847545633722 x[D4,D2,K1] <= 150
 c22[D4,D2,K2]: 49.17847545633722 x[D4,D2,K2] <= 150
 c22[D4,D3,K0]: 13.05597312125779 x[D4,D3,K0] <= 150
 c22[D4,D3,K1]: 13.05597312125779 x[D4,D3,K1] <= 150
 c22[D4,D3,K2]: 13.05597312125779 x[D4,D3,K2] <= 150
 c22[D4,S0,K0]: 46.06237029703954 x[D4,S0,K0] <= 150
 c22[D4,S0,K1]: 46.06237029703954 x[D4,S0,K1] <= 150
 c22[D4,S0,K2]: 46.06237029703954 x[D4,S0,K2] <= 150
 c22[D4,E0,K0]: 46.06237029703954 x[D4,E0,K0] <= 150
 c22[D4,E0,K1]: 46.06237029703954 x[D4,E0,K1] <= 150
 c22[D4,E0,K2]: 46.06237029703954 x[D4,E0,K2] <= 150
 c23[K0]: 43.54625521460516 x[T0,T1,K0] + 17.26528295648362 x[T0,T2,K0]
   + 26.25006010546544 x[T0,T3,K0] + 30.28879246793682 x[T0,T4,K0]
   + 43.60928950764711 x[T0,D0,K0] + 64.65028014311133 x[T0,D1,K0]
   + 56.22560601312548 x[T0,D2,K0] + 19.98677216451739 x[T0,D3,K0]
   + 8.34380185776357 x[T0,D4,K0] + 43.60928950764711 x[T0,S0,K0]
   + 43.60928950764711 x[T0,E0,K0] + 43.54625521460516 x[T1,T0,K0]
   + 58.00127419157426 x[T1,T2,K0] + 56.11357363316166 x[T1,T3,K0]
   + 38.43735388651757 x[T1,T4,K0] + 71.87705518820532 x[T1,D0,K0]
   + 101.3255312590564 x[T1,D1,K0] + 35.54451038211114 x[T1,D2,K0]
   + 25.16679954460574 x[T1,D3,K0] + 35.33476050491493 x[T1,D4,K0]
   + 71.87705518820532 x[T1,S0,K0] + 71.87705518820532 x[T1,E0,K0]
   + 17.26528295648362 x[T2,T0,K0] + 58.00127419157426 x[T2,T1,K0]
   + 36.95069683017906 x[T2,T3,K0] + 32.57372847187447 x[T2,T4,K0]
   + 51.57974794255159 x[T2,D0,K0] + 64.20157206866415 x[T2,D1,K0]
   + 73.49072680952791 x[T2,D2,K0] + 32.88916460518662 x[T2,D3,K0]
   + 24.8573892826641 x[T2,D4,K0] + 51.57974794255159 x[T2,S0,K0]
   + 51.57974794255159 x[T2,E0,K0] + 26.25006010546544 x[T3,T0,K0]
   + 56.11357363316166 x[T3,T1,K0] + 36.95069683017906 x[T3,T2,K0]
   + 55.97989518255338 x[T3,T4,K0] + 17.82365054953907 x[T3,D0,K0]
   + 45.26990577838653 x[T3,D1,K0] + 51.04387823157114 x[T3,D2,K0]
   + 40.4610267737068 x[T3,D3,K0] + 28.23875781264411 x[T3,D4,K0]
   + 17.82365054953907 x[T3,S0,K0] + 17.82365054953907 x[T3,E0,K0]
   + 30.28879246793682 x[T4,T0,K0] + 38.43735388651757 x[T4,T1,K0]
   + 32.57372847187447 x[T4,T2,K0] + 55.97989518255338 x[T4,T3,K0]
   + 73.66181070898551 x[T4,D0,K0] + 93.96137530042832 x[T4,D1,K0]
   + 67.81152570982637 x[T4,D2,K0] + 20.53184706632481 x[T4,D3,K0]
   + 28.35314108324022 x[T4,D4,K0] + 73.66181070898551 x[T4,S0,K0]
   + 73.66181070898551 x[T4,E0,K0] + 43.60928950764711 x[D0,T0,K0]
   + 71.87705518820532 x[D0,T1,K0] + 51.57974794255159 x[D0,T2,K0]
   + 17.82365054953907 x[D0,T3,K0] + 73.66181070898551 x[D0,T4,K0]
   + 32.50575983619561 x[D0,D1,K0] + 59.49758922840914 x[D0,D2,K0]
   + 58.16597795881433 x[D0,D3,K0] + 46.06237029703954 x[D0,D4,K0]
   + 64.65028014311133 x[D1,T0,K0] + 101.3255312590564 x[D1,T1,K0]
   + 64.20157206866415 x[D1,T2,K0] + 45.26990577838653 x[D1,T3,K0]
   + 93.96137530042832 x[D1,T4,K0] + 32.50575983619561 x[D1,D0,K0]
   + 92.00237200508488 x[D1,D2,K0] + 83.23453069530241 x[D1,D3,K0]
   + 70.19174066524951 x[D1,D4,K0] + 32.50575983619561 x[D1,S0,K0]
   + 32.50575983619561 x[D1,E0,K0] + 56.22560601312548 x[D2,T0,K0]
   + 35.54451038211114 x[D2,T1,K0] + 73.49072680952791 x[D2,T2,K0]
   + 51.04387823157114 x[D2,T3,K0] + 67.81152570982637 x[D2,T4,K0]
   + 59.49758922840914 x[D2,D0,K0] + 92.00237200508488 x[D2,D1,K0]
   + 48.15694349846896 x[D2,D3,K0] + 49.17847545633722 x[D2,D4,K0]
   + 59.49758922840914 x[D2,S0,K0] + 59.49758922840914 x[D2,E0,K0]
   + 19.98677216451739 x[D3,T0,K0] + 25.16679954460574 x[D3,T1,K0]
   + 32.88916460518662 x[D3,T2,K0] + 40.4610267737068 x[D3,T3,K0]
   + 20.53184706632481 x[D3,T4,K0] + 58.16597795881433 x[D3,D0,K0]
   + 83.23453069530241 x[D3,D1,K0] + 48.15694349846896 x[D3,D2,K0]
   + 13.05597312125779 x[D3,D4,K0] + 58.16597795881433 x[D3,S0,K0]
   + 58.16597795881433 x[D3,E0,K0] + 8.34380185776357 x[D4,T0,K0]
   + 35.33476050491493 x[D4,T1,K0] + 24.8573892826641 x[D4,T2,K0]
   + 28.23875781264411 x[D4,T3,K0] + 28.35314108324022 x[D4,T4,K0]
   + 46.06237029703954 x[D4,D0,K0] + 70.19174066524951 x[D4,D1,K0]
   + 49.17847545633722 x[D4,D2,K0] + 13.05597312125779 x[D4,D3,K0]
   + 46.06237029703954 x[D4,S0,K0] + 46.06237029703954 x[D4,E0,K0]
   + 43.60928950764711 x[S0,T0,K0] + 71.87705518820532 x[S0,T1,K0]
   + 51.57974794255159 x[S0,T2,K0] + 17.82365054953907 x[S0,T3,K0]
   + 73.66181070898551 x[S0,T4,K0] + 32.50575983619561 x[S0,D1,K0]
   + 59.49758922840914 x[S0,D2,K0] + 58.16597795881433 x[S0,D3,K0]
   + 46.06237029703954 x[S0,D4,K0] + 43.60928950764711 x[E0,T0,K0]
   + 71.87705518820532 x[E0,T1,K0] + 51.57974794255159 x[E0,T2,K0]
   + 17.82365054953907 x[E0,T3,K0] + 73.66181070898551 x[E0,T4,K0]
   + 32.50575983619561 x[E0,D1,K0] + 59.49758922840914 x[E0,D2,K0]
   + 58.16597795881433 x[E0,D3,K0] + 46.06237029703954 x[E0,D4,K0] <= 300
 c23[K1]: 43.54625521460516 x[T0,T1,K1] + 17.26528295648362 x[T0,T2,K1]
   + 26.25006010546544 x[T0,T3,K1] + 30.28879246793682 x[T0,T4,K1]
   + 43.60928950764711 x[T0,D0,K1] + 64.65028014311133 x[T0,D1,K1]
   + 56.22560601312548 x[T0,D2,K1] + 19.98677216451739 x[T0,D3,K1]
   + 8.34380185776357 x[T0,D4,K1] + 43.60928950764711 x[T0,S0,K1]
   + 43.60928950764711 x[T0,E0,K1] + 43.54625521460516 x[T1,T0,K1]
   + 58.00127419157426 x[T1,T2,K1] + 56.11357363316166 x[T1,T3,K1]
   + 38.43735388651757 x[T1,T4,K1] + 71.87705518820532 x[T1,D0,K1]
   + 101.3255312590564 x[T1,D1,K1] + 35.54451038211114 x[T1,D2,K1]
   + 25.16679954460574 x[T1,D3,K1] + 35.33476050491493 x[T1,D4,K1]
   + 71.87705518820532 x[T1,S0,K1] + 71.87705518820532 x[T1,E0,K1]
   + 17.26528295648362 x[T2,T0,K1] + 58.00127419157426 x[T2,T1,K1]
   + 36.95069683017906 x[T2,T3,K1] + 32.57372847187447 x[T2,T4,K1]
   + 51.57974794255159 x[T2,D0,K1] + 64.20157206866415 x[T2,D1,K1]
   + 73.49072680952791 x[T2,D2,K1] + 32.88916460518662 x[T2,D3,K1]
   + 24.8573892826641 x[T2,D4,K1] + 51.57974794255159 x[T2,S0,K1]
   + 51.57974794255159 x[T2,E0,K1] + 26.25006010546544 x[T3,T0,K1]
   + 56.11357363316166 x[T3,T1,K1] + 36.95069683017906 x[T3,T2,K1]
   + 55.97989518255338 x[T3,T4,K1] + 17.82365054953907 x[T3,D0,K1]
   + 45.26990577838653 x[T3,D1,K1] + 51.04387823157114 x[T3,D2,K1]
   + 40.4610267737068 x[T3,D3,K1] + 28.23875781264411 x[T3,D4,K1]
   + 17.82365054953907 x[T3,S0,K1] + 17.82365054953907 x[T3,E0,K1]
   + 30.28879246793682 x[T4,T0,K1] + 38.43735388651757 x[T4,T1,K1]
   + 32.57372847187447 x[T4,T2,K1] + 55.97989518255338 x[T4,T3,K1]
   + 73.66181070898551 x[T4,D0,K1] + 93.96137530042832 x[T4,D1,K1]
   + 67.81152570982637 x[T4,D2,K1] + 20.53184706632481 x[T4,D3,K1]
   + 28.35314108324022 x[T4,D4,K1] + 73.66181070898551 x[T4,S0,K1]
   + 73.66181070898551 x[T4,E0,K1] + 43.60928950764711 x[D0,T0,K1]
   + 71.87705518820532 x[D0,T1,K1] + 51.57974794255159 x[D0,T2,K1]
   + 17.82365054953907 x[D0,T3,K1] + 73.66181070898551 x[D0,T4,K1]
   + 32.50575983619561 x[D0,D1,K1] + 59.49758922840914 x[D0,D2,K1]
   + 58.16597795881433 x[D0,D3,K1] + 46.06237029703954 x[D0,D4,K1]
   + 64.65028014311133 x[D1,T0,K1] + 101.3255312590564 x[D1,T1,K1]
   + 64.20157206866415 x[D1,T2,K1] + 45.26990577838653 x[D1,T3,K1]
   + 93.96137530042832 x[D1,T4,K1] + 32.50575983619561 x[D1,D0,K1]
   + 92.00237200508488 x[D1,D2,K1] + 83.23453069530241 x[D1,D3,K1]
   + 70.19174066524951 x[D1,D4,K1] + 32.50575983619561 x[D1,S0,K1]
   + 32.50575983619561 x[D1,E0,K1] + 56.22560601312548 x[D2,T0,K1]
   + 35.54451038211114 x[D2,T1,K1] + 73.49072680952791 x[D2,T2,K1]
   + 51.04387823157114 x[D2,T3,K1] + 67.81152570982637 x[D2,T4,K1]
   + 59.49758922840914 x[D2,D0,K1] + 92.00237200508488 x[D2,D1,K1]
   + 48.15694349846896 x[D2,D3,K1] + 49.17847545633722 x[D2,D4,K1]
   + 59.49758922840914 x[D2,S0,K1] + 59.49758922840914 x[D2,E0,K1]
   + 19.98677216451739 x[D3,T0,K1] + 25.16679954460574 x[D3,T1,K1]
   + 32.88916460518662 x[D3,T2,K1] + 40.4610267737068 x[D3,T3,K1]
   + 20.53184706632481 x[D3,T4,K1] + 58.16597795881433 x[D3,D0,K1]
   + 83.23453069530241 x[D3,D1,K1] + 48.15694349846896 x[D3,D2,K1]
   + 13.05597312125779 x[D3,D4,K1] + 58.16597795881433 x[D3,S0,K1]
   + 58.16597795881433 x[D3,E0,K1] + 8.34380185776357 x[D4,T0,K1]
   + 35.33476050491493 x[D4,T1,K1] + 24.8573892826641 x[D4,T2,K1]
   + 28.23875781264411 x[D4,T3,K1] + 28.35314108324022 x[D4,T4,K1]
   + 46.06237029703954 x[D4,D0,K1] + 70.19174066524951 x[D4,D1,K1]
   + 49.17847545633722 x[D4,D2,K1] + 13.05597312125779 x[D4,D3,K1]
   + 46.06237029703954 x[D4,S0,K1] + 46.06237029703954 x[D4,E0,K1]
   + 43.60928950764711 x[S0,T0,K1] + 71.87705518820532 x[S0,T1,K1]
   + 51.57974794255159 x[S0,T2,K1] + 17.82365054953907 x[S0,T3,K1]
   + 73.66181070898551 x[S0,T4,K1] + 32.50575983619561 x[S0,D1,K1]
   + 59.49758922840914 x[S0,D2,K1] + 58.16597795881433 x[S0,D3,K1]
   + 46.06237029703954 x[S0,D4,K1] + 43.60928950764711 x[E0,T0,K1]
   + 71.87705518820532 x[E0,T1,K1] + 51.57974794255159 x[E0,T2,K1]
   + 17.82365054953907 x[E0,T3,K1] + 73.66181070898551 x[E0,T4,K1]
   + 32.50575983619561 x[E0,D1,K1] + 59.49758922840914 x[E0,D2,K1]
   + 58.16597795881433 x[E0,D3,K1] + 46.06237029703954 x[E0,D4,K1] <= 300
 c23[K2]: 43.54625521460516 x[T0,T1,K2] + 17.26528295648362 x[T0,T2,K2]
   + 26.25006010546544 x[T0,T3,K2] + 30.28879246793682 x[T0,T4,K2]
   + 43.60928950764711 x[T0,D0,K2] + 64.65028014311133 x[T0,D1,K2]
   + 56.22560601312548 x[T0,D2,K2] + 19.98677216451739 x[T0,D3,K2]
   + 8.34380185776357 x[T0,D4,K2] + 43.60928950764711 x[T0,S0,K2]
   + 43.60928950764711 x[T0,E0,K2] + 43.54625521460516 x[T1,T0,K2]
   + 58.00127419157426 x[T1,T2,K2] + 56.11357363316166 x[T1,T3,K2]
   + 38.43735388651757 x[T1,T4,K2] + 71.87705518820532 x[T1,D0,K2]
   + 101.3255312590564 x[T1,D1,K2] + 35.54451038211114 x[T1,D2,K2]
   + 25.16679954460574 x[T1,D3,K2] + 35.33476050491493 x[T1,D4,K2]
   + 71.87705518820532 x[T1,S0,K2] + 71.87705518820532 x[T1,E0,K2]
   + 17.26528295648362 x[T2,T0,K2] + 58.00127419157426 x[T2,T1,K2]
   + 36.95069683017906 x[T2,T3,K2] + 32.57372847187447 x[T2,T4,K2]
   + 51.57974794255159 x[T2,D0,K2] + 64.20157206866415 x[T2,D1,K2]
   + 73.49072680952791 x[T2,D2,K2] + 32.88916460518662 x[T2,D3,K2]
   + 24.8573892826641 x[T2,D4,K2] + 51.57974794255159 x[T2,S0,K2]
   + 51.57974794255159 x[T2,E0,K2] + 26.25006010546544 x[T3,T0,K2]
   + 56.11357363316166 x[T3,T1,K2] + 36.95069683017906 x[T3,T2,K2]
   + 55.97989518255338 x[T3,T4,K2] + 17.82365054953907 x[T3,D0,K2]
   + 45.26990577838653 x[T3,D1,K2] + 51.04387823157114 x[T3,D2,K2]
   + 40.4610267737068 x[T3,D3,K2] + 28.23875781264411 x[T3,D4,K2]
   + 17.82365054953907 x[T3,S0,K2] + 17.82365054953907 x[T3,E0,K2]
   + 30.28879246793682 x[T4,T0,K2] + 38.43735388651757 x[T4,T1,K2]
   + 32.57372847187447 x[T4,T2,K2] + 55.97989518255338 x[T4,T3,K2]
   + 73.66181070898551 x[T4,D0,K2] + 93.96137530042832 x[T4,D1,K2]
   + 67.81152570982637 x[T4,D2,K2] + 20.53184706632481 x[T4,D3,K2]
   + 28.35314108324022 x[T4,D4,K2] + 73.66181070898551 x[T4,S0,K2]
   + 73.66181070898551 x[T4,E0,K2] + 43.60928950764711 x[D0,T0,K2]
   + 71.87705518820532 x[D0,T1,K2] + 51.57974794255159 x[D0,T2,K2]
   + 17.82365054953907 x[D0,T3,K2] + 73.66181070898551 x[D0,T4,K2]
   + 32.50575983619561 x[D0,D1,K2] + 59.49758922840914 x[D0,D2,K2]
   + 58.16597795881433 x[D0,D3,K2] + 46.06237029703954 x[D0,D4,K2]
   + 64.65028014311133 x[D1,T0,K2] + 101.3255312590564 x[D1,T1,K2]
   + 64.20157206866415 x[D1,T2,K2] + 45.26990577838653 x[D1,T3,K2]
   + 93.96137530042832 x[D1,T4,K2] + 32.50575983619561 x[D1,D0,K2]
   + 92.00237200508488 x[D1,D2,K2] + 83.23453069530241 x[D1,D3,K2]
   + 70.19174066524951 x[D1,D4,K2] + 32.50575983619561 x[D1,S0,K2]
   + 32.50575983619561 x[D1,E0,K2] + 56.22560601312548 x[D2,T0,K2]
   + 35.54451038211114 x[D2,T1,K2] + 73.49072680952791 x[D2,T2,K2]
   + 51.04387823157114 x[D2,T3,K2] + 67.81152570982637 x[D2,T4,K2]
   + 59.49758922840914 x[D2,D0,K2] + 92.00237200508488 x[D2,D1,K2]
   + 48.15694349846896 x[D2,D3,K2] + 49.17847545633722 x[D2,D4,K2]
   + 59.49758922840914 x[D2,S0,K2] + 59.49758922840914 x[D2,E0,K2]
   + 19.98677216451739 x[D3,T0,K2] + 25.16679954460574 x[D3,T1,K2]
   + 32.88916460518662 x[D3,T2,K2] + 40.4610267737068 x[D3,T3,K2]
   + 20.53184706632481 x[D3,T4,K2] + 58.16597795881433 x[D3,D0,K2]
   + 83.23453069530241 x[D3,D1,K2] + 48.15694349846896 x[D3,D2,K2]
   + 13.05597312125779 x[D3,D4,K2] + 58.16597795881433 x[D3,S0,K2]
   + 58.16597795881433 x[D3,E0,K2] + 8.34380185776357 x[D4,T0,K2]
   + 35.33476050491493 x[D4,T1,K2] + 24.8573892826641 x[D4,T2,K2]
   + 28.23875781264411 x[D4,T3,K2] + 28.35314108324022 x[D4,T4,K2]
   + 46.06237029703954 x[D4,D0,K2] + 70.19174066524951 x[D4,D1,K2]
   + 49.17847545633722 x[D4,D2,K2] + 13.05597312125779 x[D4,D3,K2]
   + 46.06237029703954 x[D4,S0,K2] + 46.06237029703954 x[D4,E0,K2]
   + 43.60928950764711 x[S0,T0,K2] + 71.87705518820532 x[S0,T1,K2]
   + 51.57974794255159 x[S0,T2,K2] + 17.82365054953907 x[S0,T3,K2]
   + 73.66181070898551 x[S0,T4,K2] + 32.50575983619561 x[S0,D1,K2]
   + 59.49758922840914 x[S0,D2,K2] + 58.16597795881433 x[S0,D3,K2]
   + 46.06237029703954 x[S0,D4,K2] + 43.60928950764711 x[E0,T0,K2]
   + 71.87705518820532 x[E0,T1,K2] + 51.57974794255159 x[E0,T2,K2]
   + 17.82365054953907 x[E0,T3,K2] + 73.66181070898551 x[E0,T4,K2]
   + 32.50575983619561 x[E0,D1,K2] + 59.49758922840914 x[E0,D2,K2]
   + 58.16597795881433 x[E0,D3,K2] + 46.06237029703954 x[E0,D4,K2] <= 300
Bounds
 x[T0,T1,K0] <= 1
 x[T0,T1,K1] <= 1
 x[T0,T1,K2] <= 1
 x[T0,T2,K0] <= 1
 x[T0,T2,K1] <= 1
 x[T0,T2,K2] <= 1
 x[T0,T3,K0] <= 1
 x[T0,T3,K1] <= 1
 x[T0,T3,K2] <= 1
 x[T0,T4,K0] <= 1
 x[T0,T4,K1] <= 1
 x[T0,T4,K2] <= 1
 x[T0,D0,K0] <= 1
 x[T0,D0,K1] <= 1
 x[T0,D0,K2] <= 1
 x[T0,D1,K0] <= 1
 x[T0,D1,K1] <= 1
 x[T0,D1,K2] <= 1
 x[T0,D2,K0] <= 1
 x[T0,D2,K1] <= 1
 x[T0,D2,K2] <= 1
 x[T0,D3,K0] <= 1
 x[T0,D3,K1] <= 1
 x[T0,D3,K2] <= 1
 x[T0,D4,K0] <= 1
 x[T0,D4,K1] <= 1
 x[T0,D4,K2] <= 1
 x[T0,S0,K0] <= 1
 x[T0,S0,K1] <= 1
 x[T0,S0,K2] <= 1
 x[T0,E0,K0] <= 1
 x[T0,E0,K1] <= 1
 x[T0,E0,K2] <= 1
 x[T1,T0,K0] <= 1
 x[T1,T0,K1] <= 1
 x[T1,T0,K2] <= 1
 x[T1,T2,K0] <= 1
 x[T1,T2,K1] <= 1
 x[T1,T2,K2] <= 1
 x[T1,T3,K0] <= 1
 x[T1,T3,K1] <= 1
 x[T1,T3,K2] <= 1
 x[T1,T4,K0] <= 1
 x[T1,T4,K1] <= 1
 x[T1,T4,K2] <= 1
 x[T1,D0,K0] <= 1
 x[T1,D0,K1] <= 1
 x[T1,D0,K2] <= 1
 x[T1,D1,K0] <= 1
 x[T1,D1,K1] <= 1
 x[T1,D1,K2] <= 1
 x[T1,D2,K0] <= 1
 x[T1,D2,K1] <= 1
 x[T1,D2,K2] <= 1
 x[T1,D3,K0] <= 1
 x[T1,D3,K1] <= 1
 x[T1,D3,K2] <= 1
 x[T1,D4,K0] <= 1
 x[T1,D4,K1] <= 1
 x[T1,D4,K2] <= 1
 x[T1,S0,K0] <= 1
 x[T1,S0,K1] <= 1
 x[T1,S0,K2] <= 1
 x[T1,E0,K0] <= 1
 x[T1,E0,K1] <= 1
 x[T1,E0,K2] <= 1
 x[T2,T0,K0] <= 1
 x[T2,T0,K1] <= 1
 x[T2,T0,K2] <= 1
 x[T2,T1,K0] <= 1
 x[T2,T1,K1] <= 1
 x[T2,T1,K2] <= 1
 x[T2,T3,K0] <= 1
 x[T2,T3,K1] <= 1
 x[T2,T3,K2] <= 1
 x[T2,T4,K0] <= 1
 x[T2,T4,K1] <= 1
 x[T2,T4,K2] <= 1
 x[T2,D0,K0] <= 1
 x[T2,D0,K1] <= 1
 x[T2,D0,K2] <= 1
 x[T2,D1,K0] <= 1
 x[T2,D1,K1] <= 1
 x[T2,D1,K2] <= 1
 x[T2,D2,K0] <= 1
 x[T2,D2,K1] <= 1
 x[T2,D2,K2] <= 1
 x[T2,D3,K0] <= 1
 x[T2,D3,K1] <= 1
 x[T2,D3,K2] <= 1
 x[T2,D4,K0] <= 1
 x[T2,D4,K1] <= 1
 x[T2,D4,K2] <= 1
 x[T2,S0,K0] <= 1
 x[T2,S0,K1] <= 1
 x[T2,S0,K2] <= 1
 x[T2,E0,K0] <= 1
 x[T2,E0,K1] <= 1
 x[T2,E0,K2] <= 1
 x[T3,T0,K0] <= 1
 x[T3,T0,K1] <= 1
 x[T3,T0,K2] <= 1
 x[T3,T1,K0] <= 1
 x[T3,T1,K1] <= 1
 x[T3,T1,K2] <= 1
 x[T3,T2,K0] <= 1
 x[T3,T2,K1] <= 1
 x[T3,T2,K2] <= 1
 x[T3,T4,K0] <= 1
 x[T3,T4,K1] <= 1
 x[T3,T4,K2] <= 1
 x[T3,D0,K0] <= 1
 x[T3,D0,K1] <= 1
 x[T3,D0,K2] <= 1
 x[T3,D1,K0] <= 1
 x[T3,D1,K1] <= 1
 x[T3,D1,K2] <= 1
 x[T3,D2,K0] <= 1
 x[T3,D2,K1] <= 1
 x[T3,D2,K2] <= 1
 x[T3,D3,K0] <= 1
 x[T3,D3,K1] <= 1
 x[T3,D3,K2] <= 1
 x[T3,D4,K0] <= 1
 x[T3,D4,K1] <= 1
 x[T3,D4,K2] <= 1
 x[T3,S0,K0] <= 1
 x[T3,S0,K1] <= 1
 x[T3,S0,K2] <= 1
 x[T3,E0,K0] <= 1
 x[T3,E0,K1] <= 1
 x[T3,E0,K2] <= 1
 x[T4,T0,K0] <= 1
 x[T4,T0,K1] <= 1
 x[T4,T0,K2] <= 1
 x[T4,T1,K0] <= 1
 x[T4,T1,K1] <= 1
 x[T4,T1,K2] <= 1
 x[T4,T2,K0] <= 1
 x[T4,T2,K1] <= 1
 x[T4,T2,K2] <= 1
 x[T4,T3,K0] <= 1
 x[T4,T3,K1] <= 1
 x[T4,T3,K2] <= 1
 x[T4,D0,K0] <= 1
 x[T4,D0,K1] <= 1
 x[T4,D0,K2] <= 1
 x[T4,D1,K0] <= 1
 x[T4,D1,K1] <= 1
 x[T4,D1,K2] <= 1
 x[T4,D2,K0] <= 1
 x[T4,D2,K1] <= 1
 x[T4,D2,K2] <= 1
 x[T4,D3,K0] <= 1
 x[T4,D3,K1] <= 1
 x[T4,D3,K2] <= 1
 x[T4,D4,K0] <= 1
 x[T4,D4,K1] <= 1
 x[T4,D4,K2] <= 1
 x[T4,S0,K0] <= 1
 x[T4,S0,K1] <= 1
 x[T4,S0,K2] <= 1
 x[T4,E0,K0] <= 1
 x[T4,E0,K1] <= 1
 x[T4,E0,K2] <= 1
 x[D0,T0,K0] <= 1
 x[D0,T0,K1] <= 1
 x[D0,T0,K2] <= 1
 x[D0,T1,K0] <= 1
 x[D0,T1,K1] <= 1
 x[D0,T1,K2] <= 1
 x[D0,T2,K0] <= 1
 x[D0,T2,K1] <= 1
 x[D0,T2,K2] <= 1
 x[D0,T3,K0] <= 1
 x[D0,T3,K1] <= 1
 x[D0,T3,K2] <= 1
 x[D0,T4,K0] <= 1
 x[D0,T4,K1] <= 1
 x[D0,T4,K2] <= 1
 x[D0,D1,K0] <= 5
 x[D0,D1,K1] <= 5
 x[D0,D1,K2] <= 5
 x[D0,D2,K0] <= 5
 x[D0,D2,K1] <= 5
 x[D0,D2,K2] <= 5
 x[D0,D3,K0] <= 5
 x[D0,D3,K1] <= 5
 x[D0,D3,K2] <= 5
 x[D0,D4,K0] <= 5
 x[D0,D4,K1] <= 5
 x[D0,D4,K2] <= 5
 x[D0,S0,K0] <= 1
 x[D0,S0,K1] <= 1
 x[D0,S0,K2] <= 1
 x[D0,E0,K0] <= 1
 x[D0,E0,K1] <= 1
 x[D0,E0,K2] <= 1
 x[D1,T0,K0] <= 1
 x[D1,T0,K1] <= 1
 x[D1,T0,K2] <= 1
 x[D1,T1,K0] <= 1
 x[D1,T1,K1] <= 1
 x[D1,T1,K2] <= 1
 x[D1,T2,K0] <= 1
 x[D1,T2,K1] <= 1
 x[D1,T2,K2] <= 1
 x[D1,T3,K0] <= 1
 x[D1,T3,K1] <= 1
 x[D1,T3,K2] <= 1
 x[D1,T4,K0] <= 1
 x[D1,T4,K1] <= 1
 x[D1,T4,K2] <= 1
 x[D1,D0,K0] <= 5
 x[D1,D0,K1] <= 5
 x[D1,D0,K2] <= 5
 x[D1,D2,K0] <= 5
 x[D1,D2,K1] <= 5
 x[D1,D2,K2] <= 5
 x[D1,D3,K0] <= 5
 x[D1,D3,K1] <= 5
 x[D1,D3,K2] <= 5
 x[D1,D4,K0] <= 5
 x[D1,D4,K1] <= 5
 x[D1,D4,K2] <= 5
 x[D1,S0,K0] <= 1
 x[D1,S0,K1] <= 1
 x[D1,S0,K2] <= 1
 x[D1,E0,K0] <= 1
 x[D1,E0,K1] <= 1
 x[D1,E0,K2] <= 1
 x[D2,T0,K0] <= 1
 x[D2,T0,K1] <= 1
 x[D2,T0,K2] <= 1
 x[D2,T1,K0] <= 1
 x[D2,T1,K1] <= 1
 x[D2,T1,K2] <= 1
 x[D2,T2,K0] <= 1
 x[D2,T2,K1] <= 1
 x[D2,T2,K2] <= 1
 x[D2,T3,K0] <= 1
 x[D2,T3,K1] <= 1
 x[D2,T3,K2] <= 1
 x[D2,T4,K0] <= 1
 x[D2,T4,K1] <= 1
 x[D2,T4,K2] <= 1
 x[D2,D0,K0] <= 5
 x[D2,D0,K1] <= 5
 x[D2,D0,K2] <= 5
 x[D2,D1,K0] <= 5
 x[D2,D1,K1] <= 5
 x[D2,D1,K2] <= 5
 x[D2,D3,K0] <= 5
 x[D2,D3,K1] <= 5
 x[D2,D3,K2] <= 5
 x[D2,D4,K0] <= 5
 x[D2,D4,K1] <= 5
 x[D2,D4,K2] <= 5
 x[D2,S0,K0] <= 1
 x[D2,S0,K1] <= 1
 x[D2,S0,K2] <= 1
 x[D2,E0,K0] <= 1
 x[D2,E0,K1] <= 1
 x[D2,E0,K2] <= 1
 x[D3,T0,K0] <= 1
 x[D3,T0,K1] <= 1
 x[D3,T0,K2] <= 1
 x[D3,T1,K0] <= 1
 x[D3,T1,K1] <= 1
 x[D3,T1,K2] <= 1
 x[D3,T2,K0] <= 1
 x[D3,T2,K1] <= 1
 x[D3,T2,K2] <= 1
 x[D3,T3,K0] <= 1
 x[D3,T3,K1] <= 1
 x[D3,T3,K2] <= 1
 x[D3,T4,K0] <= 1
 x[D3,T4,K1] <= 1
 x[D3,T4,K2] <= 1
 x[D3,D0,K0] <= 5
 x[D3,D0,K1] <= 5
 x[D3,D0,K2] <= 5
 x[D3,D1,K0] <= 5
 x[D3,D1,K1] <= 5
 x[D3,D1,K2] <= 5
 x[D3,D2,K0] <= 5
 x[D3,D2,K1] <= 5
 x[D3,D2,K2] <= 5
 x[D3,D4,K0] <= 5
 x[D3,D4,K1] <= 5
 x[D3,D4,K2] <= 5
 x[D3,S0,K0] <= 1
 x[D3,S0,K1] <= 1
 x[D3,S0,K2] <= 1
 x[D3,E0,K0] <= 1
 x[D3,E0,K1] <= 1
 x[D3,E0,K2] <= 1
 x[D4,T0,K0] <= 1
 x[D4,T0,K1] <= 1
 x[D4,T0,K2] <= 1
 x[D4,T1,K0] <= 1
 x[D4,T1,K1] <= 1
 x[D4,T1,K2] <= 1
 x[D4,T2,K0] <= 1
 x[D4,T2,K1] <= 1
 x[D4,T2,K2] <= 1
 x[D4,T3,K0] <= 1
 x[D4,T3,K1] <= 1
 x[D4,T3,K2] <= 1
 x[D4,T4,K0] <= 1
 x[D4,T4,K1] <= 1
 x[D4,T4,K2] <= 1
 x[D4,D0,K0] <= 5
 x[D4,D0,K1] <= 5
 x[D4,D0,K2] <= 5
 x[D4,D1,K0] <= 5
 x[D4,D1,K1] <= 5
 x[D4,D1,K2] <= 5
 x[D4,D2,K0] <= 5
 x[D4,D2,K1] <= 5
 x[D4,D2,K2] <= 5
 x[D4,D3,K0] <= 5
 x[D4,D3,K1] <= 5
 x[D4,D3,K2] <= 5
 x[D4,S0,K0] <= 1
 x[D4,S0,K1] <= 1
 x[D4,S0,K2] <= 1
 x[D4,E0,K0] <= 1
 x[D4,E0,K1] <= 1
 x[D4,E0,K2] <= 1
 x[S0,T0,K0] <= 1
 x[S0,T0,K1] <= 1
 x[S0,T0,K2] <= 1
 x[S0,T1,K0] <= 1
 x[S0,T1,K1] <= 1
 x[S0,T1,K2] <= 1
 x[S0,T2,K0] <= 1
 x[S0,T2,K1] <= 1
 x[S0,T2,K2] <= 1
 x[S0,T3,K0] <= 1
 x[S0,T3,K1] <= 1
 x[S0,T3,K2] <= 1
 x[S0,T4,K0] <= 1
 x[S0,T4,K1] <= 1
 x[S0,T4,K2] <= 1
 x[S0,D0,K0] <= 1
 x[S0,D0,K1] <= 1
 x[S0,D0,K2] <= 1
 x[S0,D1,K0] <= 1
 x[S0,D1,K1] <= 1
 x[S0,D1,K2] <= 1
 x[S0,D2,K0] <= 1
 x[S0,D2,K1] <= 1
 x[S0,D2,K2] <= 1
 x[S0,D3,K0] <= 1
 x[S0,D3,K1] <= 1
 x[S0,D3,K2] <= 1
 x[S0,D4,K0] <= 1
 x[S0,D4,K1] <= 1
 x[S0,D4,K2] <= 1
 x[S0,E0,K0] <= 1
 x[S0,E0,K1] <= 1
 x[S0,E0,K2] <= 1
 x[E0,T0,K0] <= 1
 x[E0,T0,K1] <= 1
 x[E0,T0,K2] <= 1
 x[E0,T1,K0] <= 1
 x[E0,T1,K1] <= 1
 x[E0,T1,K2] <= 1
 x[E0,T2,K0] <= 1
 x[E0,T2,K1] <= 1
 x[E0,T2,K2] <= 1
 x[E0,T3,K0] <= 1
 x[E0,T3,K1] <= 1
 x[E0,T3,K2] <= 1
 x[E0,T4,K0] <= 1
 x[E0,T4,K1] <= 1
 x[E0,T4,K2] <= 1
 x[E0,D0,K0] <= 1
 x[E0,D0,K1] <= 1
 x[E0,D0,K2] <= 1
 x[E0,D1,K0] <= 1
 x[E0,D1,K1] <= 1
 x[E0,D1,K2] <= 1
 x[E0,D2,K0] <= 1
 x[E0,D2,K1] <= 1
 x[E0,D2,K2] <= 1
 x[E0,D3,K0] <= 1
 x[E0,D3,K1] <= 1
 x[E0,D3,K2] <= 1
 x[E0,D4,K0] <= 1
 x[E0,D4,K1] <= 1
 x[E0,D4,K2] <= 1
 x[E0,S0,K0] = 0
 x[E0,S0,K1] = 0
 x[E0,S0,K2] = 0
 r[T0] <= 150
 r[T1] <= 150
 r[T2] <= 150
 r[T3] <= 150
 r[T4] <= 150
Binaries
 y[T0,K0] y[T0,K1] y[T0,K2] y[T1,K0] y[T1,K1] y[T1,K2] y[T2,K0] y[T2,K1]
 y[T2,K2] y[T3,K0] y[T3,K1] y[T3,K2] y[T4,K0] y[T4,K1] y[T4,K2]
Generals
 x[T0,T1,K0] x[T0,T1,K1] x[T0,T1,K2] x[T0,T2,K0] x[T0,T2,K1] x[T0,T2,K2]
 x[T0,T3,K0] x[T0,T3,K1] x[T0,T3,K2] x[T0,T4,K0] x[T0,T4,K1] x[T0,T4,K2]
 x[T0,D0,K0] x[T0,D0,K1] x[T0,D0,K2] x[T0,D1,K0] x[T0,D1,K1] x[T0,D1,K2]
 x[T0,D2,K0] x[T0,D2,K1] x[T0,D2,K2] x[T0,D3,K0] x[T0,D3,K1] x[T0,D3,K2]
 x[T0,D4,K0] x[T0,D4,K1] x[T0,D4,K2] x[T0,S0,K0] x[T0,S0,K1] x[T0,S0,K2]
 x[T0,E0,K0] x[T0,E0,K1] x[T0,E0,K2] x[T1,T0,K0] x[T1,T0,K1] x[T1,T0,K2]
 x[T1,T2,K0] x[T1,T2,K1] x[T1,T2,K2] x[T1,T3,K0] x[T1,T3,K1] x[T1,T3,K2]
 x[T1,T4,K0] x[T1,T4,K1] x[T1,T4,K2] x[T1,D0,K0] x[T1,D0,K1] x[T1,D0,K2]
 x[T1,D1,K0] x[T1,D1,K1] x[T1,D1,K2] x[T1,D2,K0] x[T1,D2,K1] x[T1,D2,K2]
 x[T1,D3,K0] x[T1,D3,K1] x[T1,D3,K2] x[T1,D4,K0] x[T1,D4,K1] x[T1,D4,K2]
 x[T1,S0,K0] x[T1,S0,K1] x[T1,S0,K2] x[T1,E0,K0] x[T1,E0,K1] x[T1,E0,K2]
 x[T2,T0,K0] x[T2,T0,K1] x[T2,T0,K2] x[T2,T1,K0] x[T2,T1,K1] x[T2,T1,K2]
 x[T2,T3,K0] x[T2,T3,K1] x[T2,T3,K2] x[T2,T4,K0] x[T2,T4,K1] x[T2,T4,K2]
 x[T2,D0,K0] x[T2,D0,K1] x[T2,D0,K2] x[T2,D1,K0] x[T2,D1,K1] x[T2,D1,K2]
 x[T2,D2,K0] x[T2,D2,K1] x[T2,D2,K2] x[T2,D3,K0] x[T2,D3,K1] x[T2,D3,K2]
 x[T2,D4,K0] x[T2,D4,K1] x[T2,D4,K2] x[T2,S0,K0] x[T2,S0,K1] x[T2,S0,K2]
 x[T2,E0,K0] x[T2,E0,K1] x[T2,E0,K2] x[T3,T0,K0] x[T3,T0,K1] x[T3,T0,K2]
 x[T3,T1,K0] x[T3,T1,K1] x[T3,T1,K2] x[T3,T2,K0] x[T3,T2,K1] x[T3,T2,K2]
 x[T3,T4,K0] x[T3,T4,K1] x[T3,T4,K2] x[T3,D0,K0] x[T3,D0,K1] x[T3,D0,K2]
 x[T3,D1,K0] x[T3,D1,K1] x[T3,D1,K2] x[T3,D2,K0] x[T3,D2,K1] x[T3,D2,K2]
 x[T3,D3,K0] x[T3,D3,K1] x[T3,D3,K2] x[T3,D4,K0] x[T3,D4,K1] x[T3,D4,K2]
 x[T3,S0,K0] x[T3,S0,K1] x[T3,S0,K2] x[T3,E0,K0] x[T3,E0,K1] x[T3,E0,K2]
 x[T4,T0,K0] x[T4,T0,K1] x[T4,T0,K2] x[T4,T1,K0] x[T4,T1,K1] x[T4,T1,K2]
 x[T4,T2,K0] x[T4,T2,K1] x[T4,T2,K2] x[T4,T3,K0] x[T4,T3,K1] x[T4,T3,K2]
 x[T4,D0,K0] x[T4,D0,K1] x[T4,D0,K2] x[T4,D1,K0] x[T4,D1,K1] x[T4,D1,K2]
 x[T4,D2,K0] x[T4,D2,K1] x[T4,D2,K2] x[T4,D3,K0] x[T4,D3,K1] x[T4,D3,K2]
 x[T4,D4,K0] x[T4,D4,K1] x[T4,D4,K2] x[T4,S0,K0] x[T4,S0,K1] x[T4,S0,K2]
 x[T4,E0,K0] x[T4,E0,K1] x[T4,E0,K2] x[D0,T0,K0] x[D0,T0,K1] x[D0,T0,K2]
 x[D0,T1,K0] x[D0,T1,K1] x[D0,T1,K2] x[D0,T2,K0] x[D0,T2,K1] x[D0,T2,K2]
 x[D0,T3,K0] x[D0,T3,K1] x[D0,T3,K2] x[D0,T4,K0] x[D0,T4,K1] x[D0,T4,K2]
 x[D0,D1,K0] x[D0,D1,K1] x[D0,D1,K2] x[D0,D2,K0] x[D0,D2,K1] x[D0,D2,K2]
 x[D0,D3,K0] x[D0,D3,K1] x[D0,D3,K2] x[D0,D4,K0] x[D0,D4,K1] x[D0,D4,K2]
 x[D0,S0,K0] x[D0,S0,K1] x[D0,S0,K2] x[D0,E0,K0] x[D0,E0,K1] x[D0,E0,K2]
 x[D1,T0,K0] x[D1,T0,K1] x[D1,T0,K2] x[D1,T1,K0] x[D1,T1,K1] x[D1,T1,K2]
 x[D1,T2,K0] x[D1,T2,K1] x[D1,T2,K2] x[D1,T3,K0] x[D1,T3,K1] x[D1,T3,K2]
 x[D1,T4,K0] x[D1,T4,K1] x[D1,T4,K2] x[D1,D0,K0] x[D1,D0,K1] x[D1,D0,K2]
 x[D1,D2,K0] x[D1,D2,K1] x[D1,D2,K2] x[D1,D3,K0] x[D1,D3,K1] x[D1,D3,K2]
 x[D1,D4,K0] x[D1,D4,K1] x[D1,D4,K2] x[D1,S0,K0] x[D1,S0,K1] x[D1,S0,K2]
 x[D1,E0,K0] x[D1,E0,K1] x[D1,E0,K2] x[D2,T0,K0] x[D2,T0,K1] x[D2,T0,K2]
 x[D2,T1,K0] x[D2,T1,K1] x[D2,T1,K2] x[D2,T2,K0] x[D2,T2,K1] x[D2,T2,K2]
 x[D2,T3,K0] x[D2,T3,K1] x[D2,T3,K2] x[D2,T4,K0] x[D2,T4,K1] x[D2,T4,K2]
 x[D2,D0,K0] x[D2,D0,K1] x[D2,D0,K2] x[D2,D1,K0] x[D2,D1,K1] x[D2,D1,K2]
 x[D2,D3,K0] x[D2,D3,K1] x[D2,D3,K2] x[D2,D4,K0] x[D2,D4,K1] x[D2,D4,K2]
 x[D2,S0,K0] x[D2,S0,K1] x[D2,S0,K2] x[D2,E0,K0] x[D2,E0,K1] x[D2,E0,K2]
 x[D3,T0,K0] x[D3,T0,K1] x[D3,T0,K2] x[D3,T1,K0] x[D3,T1,K1] x[D3,T1,K2]
 x[D3,T2,K0] x[D3,T2,K1] x[D3,T2,K2] x[D3,T3,K0] x[D3,T3,K1] x[D3,T3,K2]
 x[D3,T4,K0] x[D3,T4,K1] x[D3,T4,K2] x[D3,D0,K0] x[D3,D0,K1] x[D3,D0,K2]
 x[D3,D1,K0] x[D3,D1,K1] x[D3,D1,K2] x[D3,D2,K0] x[D3,D2,K1] x[D3,D2,K2]
 x[D3,D4,K0] x[D3,D4,K1] x[D3,D4,K2] x[D3,S0,K0] x[D3,S0,K1] x[D3,S0,K2]
 x[D3,E0,K0] x[D3,E0,K1] x[D3,E0,K2] x[D4,T0,K0] x[D4,T0,K1] x[D4,T0,K2]
 x[D4,T1,K0] x[D4,T1,K1] x[D4,T1,K2] x[D4,T2,K0] x[D4,T2,K1] x[D4,T2,K2]
 x[D4,T3,K0] x[D4,T3,K1] x[D4,T3,K2] x[D4,T4,K0] x[D4,T4,K1] x[D4,T4,K2]
 x[D4,D0,K0] x[D4,D0,K1] x[D4,D0,K2] x[D4,D1,K0] x[D4,D1,K1] x[D4,D1,K2]
 x[D4,D2,K0] x[D4,D2,K1] x[D4,D2,K2] x[D4,D3,K0] x[D4,D3,K1] x[D4,D3,K2]
 x[D4,S0,K0] x[D4,S0,K1] x[D4,S0,K2] x[D4,E0,K0] x[D4,E0,K1] x[D4,E0,K2]
 x[S0,T0,K0] x[S0,T0,K1] x[S0,T0,K2] x[S0,T1,K0] x[S0,T1,K1] x[S0,T1,K2]
 x[S0,T2,K0] x[S0,T2,K1] x[S0,T2,K2] x[S0,T3,K0] x[S0,T3,K1] x[S0,T3,K2]
 x[S0,T4,K0] x[S0,T4,K1] x[S0,T4,K2] x[S0,D0,K0] x[S0,D0,K1] x[S0,D0,K2]
 x[S0,D1,K0] x[S0,D1,K1] x[S0,D1,K2] x[S0,D2,K0] x[S0,D2,K1] x[S0,D2,K2]
 x[S0,D3,K0] x[S0,D3,K1] x[S0,D3,K2] x[S0,D4,K0] x[S0,D4,K1] x[S0,D4,K2]
 x[S0,E0,K0] x[S0,E0,K1] x[S0,E0,K2] x[E0,T0,K0] x[E0,T0,K1] x[E0,T0,K2]
 x[E0,T1,K0] x[E0,T1,K1] x[E0,T1,K2] x[E0,T2,K0] x[E0,T2,K1] x[E0,T2,K2]
 x[E0,T3,K0] x[E0,T3,K1] x[E0,T3,K2] x[E0,T4,K0] x[E0,T4,K1] x[E0,T4,K2]
 x[E0,D0,K0] x[E0,D0,K1] x[E0,D0,K2] x[E0,D1,K0] x[E0,D1,K1] x[E0,D1,K2]
 x[E0,D2,K0] x[E0,D2,K1] x[E0,D2,K2] x[E0,D3,K0] x[E0,D3,K1] x[E0,D3,K2]
 x[E0,D4,K0] x[E0,D4,K1] x[E0,D4,K2] x[E0,S0,K0] x[E0,S0,K1] x[E0,S0,K2]
 p[T0,T1,K0] p[T0,T1,K1] p[T0,T1,K2] p[T0,T2,K0] p[T0,T2,K1] p[T0,T2,K2]
 p[T0,T3,K0] p[T0,T3,K1] p[T0,T3,K2] p[T0,T4,K0] p[T0,T4,K1] p[T0,T4,K2]
 p[T0,D0,K0] p[T0,D0,K1] p[T0,D0,K2] p[T0,D1,K0] p[T0,D1,K1] p[T0,D1,K2]
 p[T0,D2,K0] p[T0,D2,K1] p[T0,D2,K2] p[T0,D3,K0] p[T0,D3,K1] p[T0,D3,K2]
 p[T0,D4,K0] p[T0,D4,K1] p[T0,D4,K2] p[T0,S0,K0] p[T0,S0,K1] p[T0,S0,K2]
 p[T0,E0,K0] p[T0,E0,K1] p[T0,E0,K2] p[T1,T0,K0] p[T1,T0,K1] p[T1,T0,K2]
 p[T1,T2,K0] p[T1,T2,K1] p[T1,T2,K2] p[T1,T3,K0] p[T1,T3,K1] p[T1,T3,K2]
 p[T1,T4,K0] p[T1,T4,K1] p[T1,T4,K2] p[T1,D0,K0] p[T1,D0,K1] p[T1,D0,K2]
 p[T1,D1,K0] p[T1,D1,K1] p[T1,D1,K2] p[T1,D2,K0] p[T1,D2,K1] p[T1,D2,K2]
 p[T1,D3,K0] p[T1,D3,K1] p[T1,D3,K2] p[T1,D4,K0] p[T1,D4,K1] p[T1,D4,K2]
 p[T1,S0,K0] p[T1,S0,K1] p[T1,S0,K2] p[T1,E0,K0] p[T1,E0,K1] p[T1,E0,K2]
 p[T2,T0,K0] p[T2,T0,K1] p[T2,T0,K2] p[T2,T1,K0] p[T2,T1,K1] p[T2,T1,K2]
 p[T2,T3,K0] p[T2,T3,K1] p[T2,T3,K2] p[T2,T4,K0] p[T2,T4,K1] p[T2,T4,K2]
 p[T2,D0,K0] p[T2,D0,K1] p[T2,D0,K2] p[T2,D1,K0] p[T2,D1,K1] p[T2,D1,K2]
 p[T2,D2,K0] p[T2,D2,K1] p[T2,D2,K2] p[T2,D3,K0] p[T2,D3,K1] p[T2,D3,K2]
 p[T2,D4,K0] p[T2,D4,K1] p[T2,D4,K2] p[T2,S0,K0] p[T2,S0,K1] p[T2,S0,K2]
 p[T2,E0,K0] p[T2,E0,K1] p[T2,E0,K2] p[T3,T0,K0] p[T3,T0,K1] p[T3,T0,K2]
 p[T3,T1,K0] p[T3,T1,K1] p[T3,T1,K2] p[T3,T2,K0] p[T3,T2,K1] p[T3,T2,K2]
 p[T3,T4,K0] p[T3,T4,K1] p[T3,T4,K2] p[T3,D0,K0] p[T3,D0,K1] p[T3,D0,K2]
 p[T3,D1,K0] p[T3,D1,K1] p[T3,D1,K2] p[T3,D2,K0] p[T3,D2,K1] p[T3,D2,K2]
 p[T3,D3,K0] p[T3,D3,K1] p[T3,D3,K2] p[T3,D4,K0] p[T3,D4,K1] p[T3,D4,K2]
 p[T3,S0,K0] p[T3,S0,K1] p[T3,S0,K2] p[T3,E0,K0] p[T3,E0,K1] p[T3,E0,K2]
 p[T4,T0,K0] p[T4,T0,K1] p[T4,T0,K2] p[T4,T1,K0] p[T4,T1,K1] p[T4,T1,K2]
 p[T4,T2,K0] p[T4,T2,K1] p[T4,T2,K2] p[T4,T3,K0] p[T4,T3,K1] p[T4,T3,K2]
 p[T4,D0,K0] p[T4,D0,K1] p[T4,D0,K2] p[T4,D1,K0] p[T4,D1,K1] p[T4,D1,K2]
 p[T4,D2,K0] p[T4,D2,K1] p[T4,D2,K2] p[T4,D3,K0] p[T4,D3,K1] p[T4,D3,K2]
 p[T4,D4,K0] p[T4,D4,K1] p[T4,D4,K2] p[T4,S0,K0] p[T4,S0,K1] p[T4,S0,K2]
 p[T4,E0,K0] p[T4,E0,K1] p[T4,E0,K2] p[D0,T0,K0] p[D0,T0,K1] p[D0,T0,K2]
 p[D0,T1,K0] p[D0,T1,K1] p[D0,T1,K2] p[D0,T2,K0] p[D0,T2,K1] p[D0,T2,K2]
 p[D0,T3,K0] p[D0,T3,K1] p[D0,T3,K2] p[D0,T4,K0] p[D0,T4,K1] p[D0,T4,K2]
 p[D0,D1,K0] p[D0,D1,K1] p[D0,D1,K2] p[D0,D2,K0] p[D0,D2,K1] p[D0,D2,K2]
 p[D0,D3,K0] p[D0,D3,K1] p[D0,D3,K2] p[D0,D4,K0] p[D0,D4,K1] p[D0,D4,K2]
 p[D0,S0,K0] p[D0,S0,K1] p[D0,S0,K2] p[D0,E0,K0] p[D0,E0,K1] p[D0,E0,K2]
 p[D1,T0,K0] p[D1,T0,K1] p[D1,T0,K2] p[D1,T1,K0] p[D1,T1,K1] p[D1,T1,K2]
 p[D1,T2,K0] p[D1,T2,K1] p[D1,T2,K2] p[D1,T3,K0] p[D1,T3,K1] p[D1,T3,K2]
 p[D1,T4,K0] p[D1,T4,K1] p[D1,T4,K2] p[D1,D0,K0] p[D1,D0,K1] p[D1,D0,K2]
 p[D1,D2,K0] p[D1,D2,K1] p[D1,D2,K2] p[D1,D3,K0] p[D1,D3,K1] p[D1,D3,K2]
 p[D1,D4,K0] p[D1,D4,K1] p[D1,D4,K2] p[D1,S0,K0] p[D1,S0,K1] p[D1,S0,K2]
 p[D1,E0,K0] p[D1,E0,K1] p[D1,E0,K2] p[D2,T0,K0] p[D2,T0,K1] p[D2,T0,K2]
 p[D2,T1,K0] p[D2,T1,K1] p[D2,T1,K2] p[D2,T2,K0] p[D2,T2,K1] p[D2,T2,K2]
 p[D2,T3,K0] p[D2,T3,K1] p[D2,T3,K2] p[D2,T4,K0] p[D2,T4,K1] p[D2,T4,K2]
 p[D2,D0,K0] p[D2,D0,K1] p[D2,D0,K2] p[D2,D1,K0] p[D2,D1,K1] p[D2,D1,K2]
 p[D2,D3,K0] p[D2,D3,K1] p[D2,D3,K2] p[D2,D4,K0] p[D2,D4,K1] p[D2,D4,K2]
 p[D2,S0,K0] p[D2,S0,K1] p[D2,S0,K2] p[D2,E0,K0] p[D2,E0,K1] p[D2,E0,K2]
 p[D3,T0,K0] p[D3,T0,K1] p[D3,T0,K2] p[D3,T1,K0] p[D3,T1,K1] p[D3,T1,K2]
 p[D3,T2,K0] p[D3,T2,K1] p[D3,T2,K2] p[D3,T3,K0] p[D3,T3,K1] p[D3,T3,K2]
 p[D3,T4,K0] p[D3,T4,K1] p[D3,T4,K2] p[D3,D0,K0] p[D3,D0,K1] p[D3,D0,K2]
 p[D3,D1,K0] p[D3,D1,K1] p[D3,D1,K2] p[D3,D2,K0] p[D3,D2,K1] p[D3,D2,K2]
 p[D3,D4,K0] p[D3,D4,K1] p[D3,D4,K2] p[D3,S0,K0] p[D3,S0,K1] p[D3,S0,K2]
 p[D3,E0,K0] p[D3,E0,K1] p[D3,E0,K2] p[D4,T0,K0] p[D4,T0,K1] p[D4,T0,K2]
 p[D4,T1,K0] p[D4,T1,K1] p[D4,T1,K2] p[D4,T2,K0] p[D4,T2,K1] p[D4,T2,K2]
 p[D4,T3,K0] p[D4,T3,K1] p[D4,T3,K2] p[D4,T4,K0] p[D4,T4,K1] p[D4,T4,K2]
 p[D4,D0,K0] p[D4,D0,K1] p[D4,D0,K2] p[D4,D1,K0] p[D4,D1,K1] p[D4,D1,K2]
 p[D4,D2,K0] p[D4,D2,K1] p[D4,D2,K2] p[D4,D3,K0] p[D4,D3,K1] p[D4,D3,K2]
 p[D4,S0,K0] p[D4,S0,K1] p[D4,S0,K2] p[D4,E0,K0] p[D4,E0,K1] p[D4,E0,K2]
 p[S0,T0,K0] p[S0,T0,K1] p[S0,T0,K2] p[S0,T1,K0] p[S0,T1,K1] p[S0,T1,K2]
 p[S0,T2,K0] p[S0,T2,K1] p[S0,T2,K2] p[S0,T3,K0] p[S0,T3,K1] p[S0,T3,K2]
 p[S0,T4,K0] p[S0,T4,K1] p[S0,T4,K2] p[S0,D0,K0] p[S0,D0,K1] p[S0,D0,K2]
 p[S0,D1,K0] p[S0,D1,K1] p[S0,D1,K2] p[S0,D2,K0] p[S0,D2,K1] p[S0,D2,K2]
 p[S0,D3,K0] p[S0,D3,K1] p[S0,D3,K2] p[S0,D4,K0] p[S0,D4,K1] p[S0,D4,K2]
 p[S0,E0,K0] p[S0,E0,K1] p[S0,E0,K2] p[E0,T0,K0] p[E0,T0,K1] p[E0,T0,K2]
 p[E0,T1,K0] p[E0,T1,K1] p[E0,T1,K2] p[E0,T2,K0] p[E0,T2,K1] p[E0,T2,K2]
 p[E0,T3,K0] p[E0,T3,K1] p[E0,T3,K2] p[E0,T4,K0] p[E0,T4,K1] p[E0,T4,K2]
 p[E0,D0,K0] p[E0,D0,K1] p[E0,D0,K2] p[E0,D1,K0] p[E0,D1,K1] p[E0,D1,K2]
 p[E0,D2,K0] p[E0,D2,K1] p[E0,D2,K2] p[E0,D3,K0] p[E0,D3,K1] p[E0,D3,K2]
 p[E0,D4,K0] p[E0,D4,K1] p[E0,D4,K2] p[E0,S0,K0] p[E0,S0,K1] p[E0,S0,K2]
End
