\ Model FuelConstrainedRobots
\ LP format - for model browsing. Use MPS format to capture full model detail.
Minimize
  17.55507299355115 x[K1,('T1',_'End')]
   + 11.2677782393507 x[K1,('T2',_'End')]
   + 4.968445981753724 x[K1,('T3',_'End')]
   + 10.15261483988364 x[K1,('K1',_'End')]
   + 17.55507299355115 x[K2,('T1',_'End')]
   + 11.2677782393507 x[K2,('T2',_'End')]
   + 4.968445981753724 x[K2,('T3',_'End')]
   + 26.82604464918456 x[K2,('K2',_'End')] + 0.6312777193950104 d[K1,T1]
   + 0.8461338512637294 d[K1,T2] + 0.4192189899954336 d[K1,T3]
   + 0.6312777193950104 d[K2,T1] + 0.8461338512637294 d[K2,T2]
   + 0.4192189899954336 d[K2,T3] + 150756.4443657224 Constant + [
   0.8 x[K1,('T1',_'T2')] * a[K1,T2] - 0.8 x[K1,('T1',_'T2')] * d[K1,T1]
   + 0.8 x[K1,('T1',_'T3')] * a[K1,T3] - 0.8 x[K1,('T1',_'T3')] * d[K1,T1]
   + 0.8 x[K1,('T2',_'T1')] * a[K1,T1] - 0.8 x[K1,('T2',_'T1')] * d[K1,T2]
   + 0.8 x[K1,('T2',_'T3')] * a[K1,T3] - 0.8 x[K1,('T2',_'T3')] * d[K1,T2]
   + 0.8 x[K1,('T3',_'T1')] * a[K1,T1] - 0.8 x[K1,('T3',_'T1')] * d[K1,T3]
   + 0.8 x[K1,('T3',_'T2')] * a[K1,T2] - 0.8 x[K1,('T3',_'T2')] * d[K1,T3]
   + 0.8 x[K1,('K1',_'T1')] * a[K1,T1] - 0.8 x[K1,('K1',_'T1')] * d[K1,K1]
   + 0.8 x[K1,('K1',_'T2')] * a[K1,T2] - 0.8 x[K1,('K1',_'T2')] * d[K1,K1]
   + 0.8 x[K1,('K1',_'T3')] * a[K1,T3] - 0.8 x[K1,('K1',_'T3')] * d[K1,K1]
   + 0.8 x[K2,('T1',_'T2')] * a[K2,T2] - 0.8 x[K2,('T1',_'T2')] * d[K2,T1]
   + 0.8 x[K2,('T1',_'T3')] * a[K2,T3] - 0.8 x[K2,('T1',_'T3')] * d[K2,T1]
   + 0.8 x[K2,('T2',_'T1')] * a[K2,T1] - 0.8 x[K2,('T2',_'T1')] * d[K2,T2]
   + 0.8 x[K2,('T2',_'T3')] * a[K2,T3] - 0.8 x[K2,('T2',_'T3')] * d[K2,T2]
   + 0.8 x[K2,('T3',_'T1')] * a[K2,T1] - 0.8 x[K2,('T3',_'T1')] * d[K2,T3]
   + 0.8 x[K2,('T3',_'T2')] * a[K2,T2] - 0.8 x[K2,('T3',_'T2')] * d[K2,T3]
   + 0.8 x[K2,('K2',_'T1')] * a[K2,T1] - 0.8 x[K2,('K2',_'T1')] * d[K2,K2]
   + 0.8 x[K2,('K2',_'T2')] * a[K2,T2] - 0.8 x[K2,('K2',_'T2')] * d[K2,K2]
   + 0.8 x[K2,('K2',_'T3')] * a[K2,T3] - 0.8 x[K2,('K2',_'T3')] * d[K2,K2]
   ] / 2 
Subject To
 c2[T1,T2]: x[K1,('T1',_'T2')] + x[K2,('T1',_'T2')] <= 1
 c2[T1,T3]: x[K1,('T1',_'T3')] + x[K2,('T1',_'T3')] <= 1
 c2[T1,End]: x[K1,('T1',_'End')] + x[K2,('T1',_'End')] <= 1
 c2[T2,T1]: x[K1,('T2',_'T1')] + x[K2,('T2',_'T1')] <= 1
 c2[T2,T3]: x[K1,('T2',_'T3')] + x[K2,('T2',_'T3')] <= 1
 c2[T2,End]: x[K1,('T2',_'End')] + x[K2,('T2',_'End')] <= 1
 c2[T3,T1]: x[K1,('T3',_'T1')] + x[K2,('T3',_'T1')] <= 1
 c2[T3,T2]: x[K1,('T3',_'T2')] + x[K2,('T3',_'T2')] <= 1
 c2[T3,End]: x[K1,('T3',_'End')] + x[K2,('T3',_'End')] <= 1
 c2[K1,T1]: x[K1,('K1',_'T1')] <= 1
 c2[K1,T2]: x[K1,('K1',_'T2')] <= 1
 c2[K1,T3]: x[K1,('K1',_'T3')] <= 1
 c2[K1,End]: x[K1,('K1',_'End')] <= 1
 c2[T1,T2]: x[K1,('T1',_'T2')] + x[K2,('T1',_'T2')] <= 1
 c2[T1,T3]: x[K1,('T1',_'T3')] + x[K2,('T1',_'T3')] <= 1
 c2[T1,End]: x[K1,('T1',_'End')] + x[K2,('T1',_'End')] <= 1
 c2[T2,T1]: x[K1,('T2',_'T1')] + x[K2,('T2',_'T1')] <= 1
 c2[T2,T3]: x[K1,('T2',_'T3')] + x[K2,('T2',_'T3')] <= 1
 c2[T2,End]: x[K1,('T2',_'End')] + x[K2,('T2',_'End')] <= 1
 c2[T3,T1]: x[K1,('T3',_'T1')] + x[K2,('T3',_'T1')] <= 1
 c2[T3,T2]: x[K1,('T3',_'T2')] + x[K2,('T3',_'T2')] <= 1
 c2[T3,End]: x[K1,('T3',_'End')] + x[K2,('T3',_'End')] <= 1
 c2[K2,T1]: x[K2,('K2',_'T1')] <= 1
 c2[K2,T2]: x[K2,('K2',_'T2')] <= 1
 c2[K2,T3]: x[K2,('K2',_'T3')] <= 1
 c2[K2,End]: x[K2,('K2',_'End')] <= 1
 c3[Start,K1]: x[Start,K1] = 1
 c3[Start,K2]: x[Start,K2] = 1
 c4[K1]: x[K1,('T1',_'End')] + x[K1,('T2',_'End')] + x[K1,('T3',_'End')]
   + x[K1,('K1',_'End')] = 1
 c4[K2]: x[K2,('T1',_'End')] + x[K2,('T2',_'End')] + x[K2,('T3',_'End')]
   + x[K2,('K2',_'End')] = 1
 c5[T1,K1]: - x[K1,('T1',_'T2')] - x[K1,('T1',_'T3')] - x[K1,('T1',_'End')]
   + x[K1,('T2',_'T1')] + x[K1,('T3',_'T1')] + x[K1,('K1',_'T1')] = 0
 c5[T1,K2]: - x[K2,('T1',_'T2')] - x[K2,('T1',_'T3')] - x[K2,('T1',_'End')]
   + x[K2,('T2',_'T1')] + x[K2,('T3',_'T1')] + x[K2,('K2',_'T1')] = 0
 c5[T2,K1]: x[K1,('T1',_'T2')] - x[K1,('T2',_'T1')] - x[K1,('T2',_'T3')]
   - x[K1,('T2',_'End')] + x[K1,('T3',_'T2')] + x[K1,('K1',_'T2')] = 0
 c5[T2,K2]: x[K2,('T1',_'T2')] - x[K2,('T2',_'T1')] - x[K2,('T2',_'T3')]
   - x[K2,('T2',_'End')] + x[K2,('T3',_'T2')] + x[K2,('K2',_'T2')] = 0
 c5[T3,K1]: x[K1,('T1',_'T3')] + x[K1,('T2',_'T3')] - x[K1,('T3',_'T1')]
   - x[K1,('T3',_'T2')] - x[K1,('T3',_'End')] + x[K1,('K1',_'T3')] = 0
 c5[T3,K2]: x[K2,('T1',_'T3')] + x[K2,('T2',_'T3')] - x[K2,('T3',_'T1')]
   - x[K2,('T3',_'T2')] - x[K2,('T3',_'End')] + x[K2,('K2',_'T3')] = 0
 c6[T1,K1]: - a[K1,T1] + d[K1,T1] <= 10
 c6[T1,K2]: - a[K2,T1] + d[K2,T1] <= 10
 c6[T2,K1]: - a[K1,T2] + d[K1,T2] <= 10
 c6[T2,K2]: - a[K2,T2] + d[K2,T2] <= 10
 c6[T3,K1]: - a[K1,T3] + d[K1,T3] <= 10
 c6[T3,K2]: - a[K2,T3] + d[K2,T3] <= 10
 c7[K1,('T1',_'T2')]: 1e+10 x[K1,('T1',_'T2')] - a[K1,T2] + d[K1,T1]
   <= 9.9999999328639088e+09
 c7[K1,('T1',_'T3')]: 1e+10 x[K1,('T1',_'T3')] - a[K1,T3] + d[K1,T1]
   <= 9.9999999440230331e+09
 c7[K1,('T2',_'T1')]: 1e+10 x[K1,('T2',_'T1')] - a[K1,T1] + d[K1,T2]
   <= 9.9999999328639088e+09
 c7[K1,('T2',_'T3')]: 1e+10 x[K1,('T2',_'T3')] - a[K1,T3] + d[K1,T2]
   <= 9.9999999758240814e+09
 c7[K1,('T3',_'T1')]: 1e+10 x[K1,('T3',_'T1')] - a[K1,T1] + d[K1,T3]
   <= 9.9999999440230331e+09
 c7[K1,('T3',_'T2')]: 1e+10 x[K1,('T3',_'T2')] - a[K1,T2] + d[K1,T3]
   <= 9.9999999758240814e+09
 c7[K2,('T1',_'T2')]: 1e+10 x[K2,('T1',_'T2')] - a[K2,T2] + d[K2,T1]
   <= 9.9999999328639088e+09
 c7[K2,('T1',_'T3')]: 1e+10 x[K2,('T1',_'T3')] - a[K2,T3] + d[K2,T1]
   <= 9.9999999440230331e+09
 c7[K2,('T2',_'T1')]: 1e+10 x[K2,('T2',_'T1')] - a[K2,T1] + d[K2,T2]
   <= 9.9999999328639088e+09
 c7[K2,('T2',_'T3')]: 1e+10 x[K2,('T2',_'T3')] - a[K2,T3] + d[K2,T2]
   <= 9.9999999758240814e+09
 c7[K2,('T3',_'T1')]: 1e+10 x[K2,('T3',_'T1')] - a[K2,T1] + d[K2,T3]
   <= 9.9999999440230331e+09
 c7[K2,('T3',_'T2')]: 1e+10 x[K2,('T3',_'T2')] - a[K2,T2] + d[K2,T3]
   <= 9.9999999758240814e+09
 c8[T1,K1]: a[K1,T1] <= 150001
 c8[T1,K2]: a[K2,T1] <= 150001
 c8[T2,K1]: a[K1,T2] <= 150001
 c8[T2,K2]: a[K2,T2] <= 150001
 c8[T3,K1]: a[K1,T3] <= 150001
 c8[T3,K2]: a[K2,T3] <= 150001
 c8[End,K1]: a[K1,End] <= 150001
 c8[End,K2]: a[K2,End] <= 150001
 c9[K1,K1]: d[K1,K1] <= 150001
 c9[K2,K2]: d[K2,K2] <= 150001
 c9[T1,K1]: d[K1,T1] <= 150001
 c9[T1,K2]: d[K2,T1] <= 150001
 c9[T2,K1]: d[K1,T2] <= 150001
 c9[T2,K2]: d[K2,T2] <= 150001
 c9[T3,K1]: d[K1,T3] <= 150001
 c9[T3,K2]: d[K2,T3] <= 150001
 c10[T1,K1]: - 150000 x[K1,('T1',_'T2')] - 150000 x[K1,('T1',_'T3')]
   - 150000 x[K1,('T1',_'End')] - d[K1,T1] <= -150001
 c10[T1,K2]: - 150000 x[K2,('T1',_'T2')] - 150000 x[K2,('T1',_'T3')]
   - 150000 x[K2,('T1',_'End')] - d[K2,T1] <= -150001
 c10[T2,K1]: - 150000 x[K1,('T2',_'T1')] - 150000 x[K1,('T2',_'T3')]
   - 150000 x[K1,('T2',_'End')] - d[K1,T2] <= -150001
 c10[T2,K2]: - 150000 x[K2,('T2',_'T1')] - 150000 x[K2,('T2',_'T3')]
   - 150000 x[K2,('T2',_'End')] - d[K2,T2] <= -150001
 c10[T3,K1]: - 150000 x[K1,('T3',_'T1')] - 150000 x[K1,('T3',_'T2')]
   - 150000 x[K1,('T3',_'End')] - d[K1,T3] <= -150001
 c10[T3,K2]: - 150000 x[K2,('T3',_'T1')] - 150000 x[K2,('T3',_'T2')]
   - 150000 x[K2,('T3',_'End')] - d[K2,T3] <= -150001
 c11[K1]: 1e+10 x[K1,('K1',_'End')] + d[K1,K1] <= 1.0000000001e+10
 c11[K2]: 1e+10 x[K2,('K2',_'End')] + d[K2,K2] <= 1.0000000001e+10
 c12[K1]: x[K1,('T1',_'T2')] + x[K1,('T1',_'T3')] + x[K1,('T2',_'T1')]
   + x[K1,('T2',_'T3')] + x[K1,('T3',_'T1')] + x[K1,('T3',_'T2')]
   + x[K1,('K1',_'T1')] + x[K1,('K1',_'T2')] + x[K1,('K1',_'T3')] <= 16
 c12[K2]: x[K2,('T1',_'T2')] + x[K2,('T1',_'T3')] + x[K2,('T2',_'T1')]
   + x[K2,('T2',_'T3')] + x[K2,('T3',_'T1')] + x[K2,('T3',_'T2')]
   + x[K2,('K2',_'T1')] + x[K2,('K2',_'T2')] + x[K2,('K2',_'T3')] <= 16
 c13[K1]: 67.13609166524293 x[K1,('T1',_'T2')]
   + 55.97696694394625 x[K1,('T1',_'T3')]
   + 43.88768248387788 x[K1,('T1',_'End')]
   + 67.13609166524293 x[K1,('T2',_'T1')]
   + 24.17591793387972 x[K1,('T2',_'T3')]
   + 28.16944559837674 x[K1,('T2',_'End')]
   + 55.97696694394625 x[K1,('T3',_'T1')]
   + 24.17591793387972 x[K1,('T3',_'T2')]
   + 12.42111495438431 x[K1,('T3',_'End')]
   + 65.70133639456978 x[K1,('K1',_'T1')]
   + 3.730681183349344 x[K1,('K1',_'T2')]
   + 20.55814664754152 x[K1,('K1',_'T3')]
   + 25.38153709970911 x[K1,('K1',_'End')] <= 10000
 c13[K2]: 67.13609166524293 x[K2,('T1',_'T2')]
   + 55.97696694394625 x[K2,('T1',_'T3')]
   + 43.88768248387788 x[K2,('T1',_'End')]
   + 67.13609166524293 x[K2,('T2',_'T1')]
   + 24.17591793387972 x[K2,('T2',_'T3')]
   + 28.16944559837674 x[K2,('T2',_'End')]
   + 55.97696694394625 x[K2,('T3',_'T1')]
   + 24.17591793387972 x[K2,('T3',_'T2')]
   + 12.42111495438431 x[K2,('T3',_'End')]
   + 97.66805919326457 x[K2,('K2',_'T1')]
   + 77.84977306375083 x[K2,('K2',_'T2')]
   + 58.60095800907561 x[K2,('K2',_'T3')]
   + 67.0651116229614 x[K2,('K2',_'End')] <= 10000
Bounds
 Constant = 1
Binaries
 x[K1,('T1',_'T2')] x[K1,('T1',_'T3')] x[K1,('T1',_'End')]
 x[K1,('T2',_'T1')] x[K1,('T2',_'T3')] x[K1,('T2',_'End')]
 x[K1,('T3',_'T1')] x[K1,('T3',_'T2')] x[K1,('T3',_'End')]
 x[K1,('K1',_'T1')] x[K1,('K1',_'T2')] x[K1,('K1',_'T3')]
 x[K1,('K1',_'End')] x[K2,('T1',_'T2')] x[K2,('T1',_'T3')]
 x[K2,('T1',_'End')] x[K2,('T2',_'T1')] x[K2,('T2',_'T3')]
 x[K2,('T2',_'End')] x[K2,('T3',_'T1')] x[K2,('T3',_'T2')]
 x[K2,('T3',_'End')] x[K2,('K2',_'T1')] x[K2,('K2',_'T2')]
 x[K2,('K2',_'T3')] x[K2,('K2',_'End')] x[Start,K1] x[Start,K2]
End
